File Created for 1 KOH by 110 waters at 
   1.0000000000000000     
    14.8997209999999995    0.0000000000000000    0.0000000000000000
     0.0000000000000000   14.8997209999999995    0.0000000000000000
     0.0000000000000000    0.0000000000000000   14.8997209999999995
  H               O               K             
   221   111     1
Direct
  0.9536265311994766  0.1647760247793455  0.7845390461251078
  0.9774402143646770  0.2470104729226319  0.8340614163097728
  0.7155735246392325  0.9879474292715279  0.1649871170669729
  0.7792035080507280  0.9253692709823657  0.1071977845275451
  0.0516055800417127  0.1708039941975756  0.2675111729048597
  0.0610072520027005  0.2417807556363252  0.1943804784825277
  0.7466106344296157  0.2284955133977140  0.6548550906199441
  0.8473375411562800  0.2339677205848116  0.6849652454870646
  0.0080137307234946  0.0700495452054408  0.4871866717592260
  0.9638519555118553  0.1070477148327382  0.4013800787123895
  0.8416933756750244  0.0423108955780837  0.3427434498662299
  0.8692653812036739  0.1385388135127492  0.3054680564316302
  0.2292662651023211  0.9309050032280928  0.6931577210560472
  0.1718692954546062  0.0130796769537285  0.6756569780373027
  0.9790180276370459  0.6801352725282511  0.3355511955427858
  0.0794698722590073  0.6702850925110875  0.3017139498518101
  0.2097982387732106  0.0316057418029547  0.9351421906348045
  0.1989285766103847  0.0550259139728637  0.0405412817716317
  0.0566063566058896  0.5360981922789635  0.3369594098677144
  0.1502567320452410  0.4928438636749801  0.3106073200581542
  0.6335479266176679  0.2065926015101787  0.7564878305731799
  0.6082405023093386  0.2879702896312837  0.7003572745384732
  0.2497278720825307  0.6588269871193688  0.3332168090097284
  0.1977159183453877  0.7460084927870043  0.2849868578105317
  0.5565401642525004  0.5200785725059546  0.2851595612273398
  0.5581938476732153  0.5658498142582781  0.3804080746012960
  0.8694377752556290  0.6411647594625275  0.4208808798709118
  0.9208550844848109  0.7043001890368767  0.4923558870683990
  0.4690732972660740  0.2343393973876952  0.0236298033085786
  0.4132695899173363  0.3162922160204050  0.0168450510429408
  0.8237079795306577  0.2870377002474548  0.3277127504117681
  0.9248139700700898  0.2721868845284765  0.3621850669592954
  0.6440020447724684  0.0910534276871963  0.2382452106993932
  0.5679785500703665  0.0277305093634810  0.2251475906265855
  0.1228715424082316  0.8798382132841350  0.0617836444455626
  0.0514426390970768  0.8052397636348166  0.0664257803964013
  0.2795297066517539  0.8326648595719129  0.8224783877748617
  0.1850474782582803  0.7866691804959567  0.8428162018085358
  0.4315043349480408  0.7677297023572147  0.9703845940841177
  0.5087699168575407  0.7872161156733454  0.9038036147536348
  0.2501406319187707  0.3676482598789789  0.8339417526044089
  0.2482503167095565  0.4216926870028984  0.9213137257523902
  0.5293267678630711  0.6237808568270791  0.9700665410538690
  0.4952616011556816  0.5311109570462136  0.9271935603485016
  0.9484888378947778 -0.0059771579681512  0.7995672185525127
  0.8529573255563376  0.0294854205059728  0.7660581175407423
  0.0407036794386961  0.3401654895807365  0.6095525518375713
  0.0255967105890774  0.2755247391147480  0.6940589275475737
  0.5019299824685455  0.9151125759349570  0.5059945949168878
  0.5310197786408269  0.9751294198044264  0.5796643022141789
  0.4822113561642195  0.2290962262109964  0.3128828960959618
  0.4022424476281752  0.2866531355919995  0.2862013932096352
  0.3359140140784835  0.4305098922594682  0.1791904315151312
  0.2788943375724669  0.3957875962670208  0.2590196484937085
  0.5077851255620168  0.3574212905930948  0.8600693035838572
  0.4049563571483744  0.3879583990676856  0.8713435489021794
  0.8978704149893396  0.4400255298895577  0.0514604562721618
  0.9314616881202634  0.4779151722713503  0.1383746168215909
  0.9426234234736259  0.8392349763170091  0.8683658062160737
  0.9165540598655526  0.8656971631415553  0.9642233595076360
  0.6978079777222557  0.2558578453190131  0.2336087985160997
  0.7572601753174564  0.2107022396499064  0.1682665821312050
  0.8859529456997161  0.8104817336130282  0.4025266106414053
  0.8593709635202176  0.9104967046590829  0.3901159854044473
  0.8183478349124973  0.1657313474502463  0.9816887179277833
  0.7637684206548525  0.0929393942240401  0.9247354554611021
  0.9529630308454180  0.6226780670017255  0.0771999500200999
 -0.0087970511302787  0.6693581640723879  0.1638642545757549
  0.0574355887023672  0.9715449484716728  0.6084815048776178
  0.9646698946726054  1.0059191011318169  0.6298966450907271
  0.7050774569907653  0.9573047600154744  0.7481248142495024
  0.6825434061632479  0.0543368561358758  0.7601513434306910
  0.0856819210863952  0.9443231980541128  0.8871978033543813
  0.0980958434375650  0.9168603757577874  0.7821693920780299
  0.4417670607167457  0.0570621816455932  0.9440023028362535
  0.4979526812064651  0.9810613525872882  0.9165551464298272
  0.4983404223243546  0.7664262157395020  0.3652919353988193
  0.4449527270012376  0.7911687868904956  0.2837084690222701
  0.7032125618510046  0.6575603776164298  0.2061540842107579
  0.6904616652509338  0.5631119640024239  0.1577633646214888
  0.3862523345389681  0.4572374920980323  0.0520953389791288
  0.4774213247932637  0.4588369592777454  0.1013342785219877
  0.7055041870650279  0.8291395618261822  0.4285252549983044
  0.7584655004683571  0.7447468689432968  0.4329752650824373
  0.1069407874007056  0.4894582915944533  0.4842966568981240
  0.1642988884229684  0.4928580793966564  0.5656538421164182
  0.8835037005572162  0.2411970297892856  0.1911862064906401
  0.8788428596670012  0.2862118998474009  0.0928420415633209
  0.4067960174513328  0.6412348363915212  0.2593493306068076
  0.3698013976489277  0.6700324953343367  0.1669880343657919
  0.5744788466400895  0.0775586998575140  0.8490898805489763
  0.5145079778340456  0.1566720454425563  0.8106839287602411
  0.0395530878593026  0.3787389766306211  0.1062084443384155
  0.1324765939288439  0.3363397011930743  0.1291813915804411
  0.1788930415754474  0.4911560634893667  0.1798442930713349
  0.0972779390922916  0.5214442239467947  0.1274353770562672
  0.4430658345345798  0.8820356309145334  0.7858953067017109
  0.3442739755650178  0.8332995932775279  0.7099191363936731
  0.0686762996745160  0.7090521714724350  0.7642026631431968
  0.1241871859349346  0.7487355983601446  0.6827171472377013
  0.2441611892269465  0.1728677418480729  0.6360083010324872
  0.1463861161365075  0.2055652151472573  0.6348403416896136
  0.6338133365945651  0.4389153839810728  0.1321789676103152
  0.5821715233083838  0.5057152275022323  0.0564766099682178
  0.7174603719520228  0.7874506854411728  0.8234879149726094
  0.7871364865317285  0.8570546474610495  0.8286766732015057
  0.6048505211015364  0.5865955728801883  0.7984374057530300
  0.5474431676936555  0.4964004190270022  0.7773243910284729
  0.4968875173312867  0.9004182064951229  0.1554116178810243
  0.4627156868580975  0.9832289577968999  0.0941108398017896
  0.7515711697818275  0.4051993376211717  0.2849694034134051
  0.6899260611815071  0.3599062446453288  0.3581427735522829
  0.9439367614519738  0.0903355496098327  0.9468267400317859
  0.0453447636270158  0.0954551750979936  0.9792635715599880
  0.6019922933877797  0.2904924084314758  0.9723636325449214
  0.6401110499875337  0.3223573818439100  0.8822601693063900
  0.6467404292279030  0.1534918050244456 -0.0107174535015515
  0.6370178559281314  0.1963592295175511  0.0863691327358455
  0.5429917654661138  0.7836982030178969  0.0549991820681707
  0.5096384414679591  0.7469873514005851  0.1451285942693750
  0.3528312579442997  0.5457047767866572  0.5681329018897523
  0.3422118143970731  0.4557922949899371  0.5147003298150481
  0.6081021052330868  0.6797667991363091  0.4607909849902792
  0.5277150131565641  0.6559144612781127  0.5177933693747772
  0.8187321923630267  0.3906748961602036  0.9378632860572025
  0.7509604468150520  0.3662182317018982  1.0158120681124132
  0.2979830210377474  0.5927554802908648  0.0286830652126660
  0.3168930900840369  0.5828979936468109  0.9287892942614565
  0.2308100367515786  0.3029815819529013  0.9970677561562939
  0.2348510292614358  0.2083284536314204  0.0362769204315884
  0.3019405696839649  0.7582009457893988  0.5477161797606016
  0.3979769909643115  0.7532067640727231  0.5919916755624119
  0.4005050461667086  0.3143397097068968  0.6076813071330821
  0.3984102728364229  0.2262564624100824  0.5418201639659205
  0.0528378847310259  0.7676266512244975  0.5350383363962805
  0.9826263107814247  0.8525750518629436  0.5446295813790004
  0.9776367414234337  0.3375218836457695  0.9820674691847411
  0.0729488127451643  0.2975761160659907  0.9725236972740985
  0.3356028005426776  0.9864751242126694  0.8166171993234486
  0.3346909528703826  0.0923117504309085  0.8344657405831208
  0.1859447682145104  0.3548461613993825  0.6845280931869570
  0.2474223522433387  0.4421979568914554  0.7040722460034475
  0.8331360350580239  0.5538089253924756  0.2224781328214097
  0.8850191187545376  0.5132189568630409  0.2951045373381737
  0.2257665543929202  0.8779443001069323  0.2224631130580677
  0.1326775448202458  0.8703936968065822  0.2508834193021449
  0.5906906975165346  0.1271077608347425  0.3589622669990568
  0.5421016676049956  0.1382979098233435  0.4503672904334632
  0.2291272935447264  0.9520244602865326  0.4328871223805274
  0.1917261900428657  0.9527852130205201  0.5298762544674166
  0.2284307285308005  0.1704444293027335  0.4492888490972754
  0.1441384059730546  0.1176092960366507  0.4182538869804816
  0.6835896467057767  0.7979947544547733  0.6463697252588174
  0.6122983485464107  0.8651244583697136  0.6027370236114362
  0.7157725540638878  0.9565364996064600  0.9168988898232333
  0.6955393527189979  0.0125651830530662  0.0042601972827324
  0.9831963114068670  0.4971696264139838  0.6153550798683820
  0.9007444163411911  0.4507262545792831  0.6551250830708186
  0.4171782864316249  0.0698907306797657  0.5563200636463862
  0.3775885827897990  0.0756050458249273  0.4604045690878161
  0.3006650404182355  0.7034084374327997  0.8381574061048649
  0.3977393139331509  0.6654976921730228  0.8352445681393913
  0.9053658160821366  0.7717464153853815  0.1174393828934017
  0.8151715506207614  0.8037785629097677  0.1603589398138989
  0.1829640194744476  0.7288861763649721  0.4510056825702995
  0.1760410349955256  0.6546537804664782  0.5204909075188250
  0.2591249652739955  0.2547881809565062  0.2188615730064229
  0.2324362950571942  0.2133999877790081  0.3100956552919562
  0.0308051631255291  0.8991083114183661  0.3459755546131745
  0.0953717611276176  0.9766073344567402  0.3592812273790250
  0.8733774156331897  0.7470633718990439  0.6104115648814896
  0.7903098775002378  0.6837553515784777  0.6203645523882635
  0.5750002516522182  0.4172936979209355  0.4029252330642284
  0.5641824569392283  0.3118988920851141  0.4116599758899929
  0.7577169147196913  0.6585636599990010  0.8697374041331754
  0.7615789371270018  0.6477009591190172  0.7696402734296335
  0.7775473073351395  0.5000247064080885  0.7744549291844549
  0.7823100818448264  0.3994868710333781  0.7434780615783022
  0.8272311389314393  0.7099453267395079  0.9657205449592687
  0.7869518034813496  0.6408033635894385  0.0274660095265206
  0.4722677824103321  0.0354077724167652  0.7294056997631173
  0.3933389530528157  0.9818711691710003  0.6888916248111880
  0.6620462647384476  0.5649024697752408  0.6835111885739156
  0.7263785647908783  0.5035372841853432  0.6212240619480830
  0.6977967577020534  0.9812941655472074  0.3776726665132812
  0.7552303661489802  0.0152225092622285  0.4609831918887630
  0.2738852454156110  0.0756007688168251  0.1746833753444661
  0.1757045095408593  0.1238421332252490  0.1620941551822278
  0.9514062607993121  0.5884568308260049  0.8441990095542450
  0.9561001087796374  0.5683285796498075  0.7367152903879608
  0.7499475394593922  0.0332915405729387  0.6041389087734268
  0.8032766967870492  0.1193062902591566  0.5792714260628218
  0.5285550246921238  0.3655503133050592  0.5514847078128480
  0.5303792549441183  0.4405534735110744  0.6199305355992030
  0.7796375484442284  0.4923333028783984  0.4457909447838819
  0.7141211028671306  0.5504481456844850  0.3919442974801804
  0.5503301897320577  0.7196421900376266  0.6408136781884328
  0.4984189196363603  0.6286167090106765  0.6750643316301246
  0.2162886428312487  0.6248335075382985  0.1512044432011347
  0.2474677946558140  0.7251710221873252  0.1089604314758363
  0.3402489388628540  0.5235200730435392  0.3287408077495406
  0.3768031857378983  0.5710265173953147  0.4141978244737480
  0.2938408909483202  0.0326444311091395  0.3141131060747887
  0.3607952042034007  0.9872554371171539  0.2514297767687564
  0.2686997569912074  0.3168022111933181  0.5241152890282236
  0.2297095683698443  0.3387892077464264  0.4299770796109377
  0.3637898603689866  0.8911691264203973  0.4940277117480315
  0.4013692445680124  0.8980887853467991  0.3964302340338918
  0.1998565871473984  0.5992711787334970  0.6945752907956344
  0.3009952980215863  0.5860308536946073  0.7176734136580831
  0.5426648856366333  0.8437656679765577  0.7681783062867047
  0.2720707833941324  0.8111168243241251  0.9845113228429210
  0.0746941799953583  0.3201194772521902  0.4362799339176152
  0.0173444627435120  0.2367247276365466  0.4630794455058094
  0.7957698491772235  0.3156776875674434  0.5399239796117544
  0.7007323159746536  0.3544593084632202  0.5107434357196852
  0.6464759020580675  0.8245565491052061  0.2747065334237057
  0.6501649591882767  0.7989187361638370  0.1734883733468292
  0.4066883055213641  0.2231960103333788  0.8769105583744667
  0.4211473673827325  0.2684141388065061  0.7941790509133548
  0.2886227588946318  0.8881782717061936  0.0526462021849169
  0.9555505210098320  0.2302193049291228  0.7730005122966082
  0.7566270898340618  0.9843682422187954  0.1137112218764689
  0.0773753228134813  0.1781450884552761  0.2075102516680679
  0.8091030152951865  0.2281707745994923  0.6324122990782548
  0.0138026621401795  0.1176041699149083  0.4415190377643339
  0.8861005381509566  0.0740824511768384  0.3031474579233780
  0.1685360510719932  0.9475952886914903  0.6763051983350230
  0.0207296278711631  0.6427679365016375  0.3013039661317878
  0.1673056501974502  0.0442354344840986  0.9859166257177783
  0.1028394527851108  0.4926440081316603  0.3565650994797647
  0.6545994284307507  0.2660060415266939  0.7405133180266439
  0.1999107445951046  0.7015246369081729  0.3362790637898666
  0.5875461531258657  0.5196173938425648  0.3437556395777664
  0.8949642268840737  0.6994016758673320  0.4321448932266366
  0.4137436352623538  0.2526226781649457 -0.0040317718102747
  0.8822976469392706  0.2602170887170794  0.3135308125871633
  0.6173809558770011  0.0379457582612795  0.2657856318499733
  0.0645136513723649  0.8620361908397596  0.0342354127712550
  0.2440753301259225  0.7984599521098982  0.8726418458206452
  0.4871055433640427  0.7425669672629367  0.9482209681170287
  0.2712219184362730  0.3637969776863920  0.8977880321634282
  0.5462026183110581  0.5591504506130189  0.9633514937619740
  0.9181714587710125  0.0336286101954383  0.7562417581308227
  0.0701575212453018  0.3007059409025292  0.6539970760052481
  0.5556677792355397  0.9463816258811003  0.5244010690379486
  0.4653226975488179  0.2755724651657723  0.2726866175608431
  0.2959518650748563  0.4541396091968979  0.2286708888356520
  0.4577996801892359  0.3930117864921028  0.8325531852904691
  0.9481470196991021  0.4737454574326969  0.0757513882516371
  0.8919064591998196  0.8382461224236312  0.9090683835330078
  0.6962058181227199  0.2013826925861681  0.1946542559966306
  0.9122029453757228  0.8700153745701605  0.3872208264345092
  0.8085172477905063  0.1419466976145433  0.9222080044816077
  0.9673758485729353  0.6796370796198796  0.1056115353296070
  1.0032229426765535  0.9849248207865037  0.5775064659389714
  0.7201560478713266  0.0150692219396971  0.7279650383415667
  0.0536965114930760  0.9298784886759174  0.8303962408292920
  0.5007996596868811  0.0308692576786683  0.9598256632419576
  0.4692574428854578  0.8183213197457186  0.3411900959594801
  0.7340798390862869  0.6134813024899051  0.1676470626066597
  0.4238603296856343  0.4228937519538594  0.0945019986777617
  0.6996177760425640  0.7647297899193589  0.4407554468758815
  0.1061099309922532  0.5152702416293213  0.5446880087980065
  0.8631088124525763  0.2334379310538619  0.1283228519637529
  0.4247553795298199  0.6749751949690060  0.2025415932069394
  0.5634282996228751  0.1132777221054191  0.7981341869409735
  0.0751783744816441  0.3568787565528130  0.1565405087089849
  0.1459446339223383  0.5477454303656392  0.1658731690336337
  0.3298438369336439  0.8860703877858561  0.7457585064050024
  0.1286104935040945  0.7119983382528906  0.7366567036969945
  0.1842973809749741  0.1541427011743908  0.6158863902194671
  0.5989140188066405  0.4953789943341907  0.1203881667494520
  0.7190076897381503  0.8509356765585571  0.8312077705501313
  0.5669175144633625  0.5557828593695757  0.7520589692921557
  0.4708133929753824  0.9631514636351152  0.1601562156807065
  0.7290205915170992  0.3463646300615468  0.3054273143089138
  0.9835070103113359  0.0836051333031221  0.9962595123424691
  0.6093110262652111  0.3471282134875972  0.9348683656714384
  0.6062880570997958  0.1871577563022054  0.0268603132102826
  0.5450381143590974  0.7985574882838214  0.1172071173939903
  0.3823003520901117  0.5047803433256142  0.5289119197390052
  0.5463177835000260  0.6590389444919702  0.4523877765786274
  0.8130708867343899  0.3691323227272147  1.0002007021937325
  0.3021893879029615  0.5477753417211139  0.9818977658606296
  0.2002701549796028  0.2670577580678527  0.0429678520316280
  0.3611281778560734  0.7908691628314951  0.5532942488043030
  0.3678776151540490  0.2789077700021570  0.5636070673453165
 -0.0007973364987661  0.7908358593683227  0.5639857895633930
  0.0161535381051825  0.3094404511613413  0.9392594634420698
  0.3249752777388156  0.0345365987672653  0.8624847402582179
  0.2462120487473349  0.3781072233776079  0.7031814696010089
  0.8646086480427556  0.4959726343069729  0.2366535576651480
  0.1789072435776458  0.8333243470524482  0.2169546325101644
  0.5830899672260896  0.1687666628258088  0.4114766903193441
  0.1740493166527288  0.9600140916948127  0.4664118398216816
  0.2071332006024025  0.1324116661962253  0.4003168386447444
  0.6192407438988731  0.8158440509232980  0.6473383914569865
  0.6859617789956712  0.0136072938459368  0.9376700233780626
  0.9207505770653552  0.5085853879714534  0.6333988645962993
  0.4008655622543876  0.1165889850436849  0.5086014012063159
  0.3356616348647842  0.6464081091259107  0.8270369951237397
  0.8652297938086778  0.8255526351163931  0.1265267093918807
  0.1732588286864261  0.7213016657771781  0.5144705098611152
  0.2617207724665915  0.2668176163262355  0.2824971972444335
  0.0677265408932548  0.9442199897492278  0.3128747274244064
  0.8161988908692718  0.7389070872051816  0.6462116955369228
  0.5852049341658946  0.3659214795066190  0.4406931946263031
  0.7195249884970032  0.6658080412705319  0.8163209513930230
  0.7970740077802498  0.4391138696824085  0.7939695186752436
  0.8054645397580928  0.6484116354068070  0.9652612521495377
  0.4407433828204362  0.0254631185679385  0.6742916711529178
  0.7212022340129673  0.5599447580399830  0.6563901688659302
  0.7559765148502358  0.9732629933308552  0.4066509856951043
  0.2415080789860954  0.1237618061444901  0.1402280093569732
  0.9692174539149934  0.6153523380999983  0.7856904133936944
  0.7739556718118455  0.0685903971850831  0.5515291535720046
  0.5260138920550510  0.3748419653434189  0.6190280984390173
  0.7696152230956880  0.5540136678724107  0.4252876810410447
  0.5014213524382817  0.6742200810575246  0.6279642230010466
  0.2641335272861628  0.6617509460470912  0.1190331554469477
  0.3556603459020167  0.5833464163048850  0.3545237309891782
  0.2930287181516688  0.9948099572619437  0.2601519924699308
  0.2160476987850544  0.3450601776079238  0.4944658539535625
  0.3627077785717984  0.9309904306222228  0.4387967709814112
  0.2518333648841842  0.5578495305844369  0.6806406118734899
  0.5065733746130219  0.8817245337909037  0.8064285245454218
  0.0143135927007705  0.2989439970192414  0.4417554721766869
  0.7617306153366676  0.3670189328439523  0.5201310011678288
  0.6856824691226678  0.8006518471716395  0.2255628800472296
  0.4054613117702183  0.2085185991534970  0.8137021071304092
  0.3022515882117314  0.8263125651286866  0.0415438377654703
  0.9644877289634692  0.0002195293510110  0.1508963395429978

  0.40181609E-02  0.30629304E-02  0.91317402E-02
  0.43754885E-02 -0.15917635E-02 -0.17005716E-01
  0.23369045E-01  0.13053246E-01 -0.51703890E-02
 -0.98428463E-02 -0.11410887E-01  0.11675127E-01
 -0.11103073E-01  0.27460531E-02  0.25227501E-02
  0.50520408E-03 -0.16235842E-01 -0.23500063E-01
 -0.16855401E-01  0.10513475E-02 -0.62089836E-02
  0.16241308E-02  0.30102681E-01  0.64008310E-02
  0.13450712E-01 -0.10849941E-01 -0.11936142E-01
 -0.88683772E-02 -0.23065738E-02 -0.89448106E-03
 -0.12247692E-02 -0.26137536E-01  0.71584494E-02
  0.63035265E-02 -0.32517123E-02 -0.20592652E-01
 -0.52509620E-02 -0.18124220E-01  0.13544254E-01
  0.20601544E-02  0.11381757E-02  0.15676297E-01
  0.81616562E-02 -0.28138794E-03 -0.91896154E-02
 -0.35571327E-02  0.87852723E-02 -0.54366554E-02
 -0.14709965E-01  0.48778303E-02 -0.96024955E-02
  0.86935638E-02  0.14528108E-01  0.11116537E-01
 -0.40345285E-02 -0.14307409E-01  0.98349598E-02
 -0.27450469E-01  0.19905832E-01 -0.21213202E-01
  0.15048444E-01 -0.88788421E-02  0.19659831E-01
 -0.12160866E-01  0.57845104E-02  0.32944566E-02
 -0.43954031E-02 -0.21531669E-02  0.10641736E-01
  0.23153949E-01 -0.14756705E-01  0.65065687E-02
 -0.15628240E-01  0.25653531E-02 -0.76314770E-02
  0.14560556E-01  0.16429367E-01 -0.69481600E-03
  0.37146066E-02  0.11990717E-01  0.48910558E-02
 -0.64834375E-02 -0.23872836E-01 -0.11900068E-01
 -0.79490423E-02 -0.12599505E-01  0.99306003E-02
 -0.29295075E-02 -0.71941748E-02  0.12209657E-01
 -0.93387092E-02  0.29304891E-01 -0.21827496E-01
 -0.33509398E-02  0.11795715E-01  0.53438625E-02
 -0.19617011E-01  0.10439201E-01  0.52612052E-03
  0.25726562E-01 -0.28206947E-02 -0.88542589E-02
  0.10661685E-01 -0.16215571E-01 -0.41063210E-02
  0.80497223E-02  0.89545858E-02  0.19881018E-01
 -0.56728546E-02  0.22286898E-01 -0.42312849E-02
 -0.20187110E-01 -0.29215298E-01 -0.17973596E-02
  0.44560161E-03 -0.71668788E-02  0.48467928E-02
  0.15418823E-02  0.20300382E-01 -0.20177881E-01
  0.41237310E-02 -0.96118519E-02  0.16059285E-01
  0.25394143E-01  0.11097506E-01 -0.39381218E-01
  0.64758690E-02  0.52932917E-02  0.24792991E-01
 -0.63452271E-02 -0.28894957E-02 -0.41847083E-02
  0.18231836E-01 -0.48675420E-02  0.36727696E-01
  0.15204818E-01 -0.16432057E-01  0.11688658E-01
  0.17725610E-01 -0.29149027E-03  0.10447518E-02
  0.28557187E-02 -0.97007867E-02 -0.74058383E-03
 -0.91059753E-02 -0.95419779E-02  0.20473959E-02
  0.20354052E-01  0.19502395E-01  0.11448842E-01
  0.38286889E-01  0.16259468E-01 -0.38676226E-02
 -0.19282665E-02 -0.58540043E-02  0.24418976E-01
 -0.31003772E-02  0.13806897E-01 -0.20312202E-02
 -0.51653909E-02  0.17503955E-01  0.95100996E-02
  0.37860012E-03  0.27929430E-01  0.30569578E-03
 -0.80364699E-02  0.27891641E-01 -0.12296148E-01
 -0.66487833E-02 -0.11721228E-01  0.12570712E-01
  0.29312381E-02  0.22122463E-03  0.16894540E-01
  0.17256484E-01  0.27066629E-01 -0.92142683E-02
  0.19678019E-01 -0.12927946E-01 -0.10663062E-01
 -0.81607155E-03  0.11165655E-01  0.85027669E-02
 -0.16200993E-01 -0.11432239E-02 -0.98415714E-02
 -0.61862854E-02 -0.16958607E-03 -0.16360778E-01
  0.11504028E-01 -0.24485066E-01 -0.17388955E-01
 -0.14299252E-02  0.31367112E-01 -0.11189768E-01
  0.38342427E-02 -0.10592673E-01  0.17277731E-02
  0.17640978E-01 -0.78239181E-02  0.56512214E-03
 -0.49403914E-02  0.22995155E-02 -0.18274711E-01
  0.15505337E-01  0.71247689E-03 -0.21846269E-02
  0.23353775E-02 -0.22396399E-01 -0.15766309E-01
 -0.31172095E-01 -0.41145289E-02 -0.35272454E-01
  0.57550671E-02  0.94873551E-02 -0.13070019E-03
 -0.33534558E-01  0.27535344E-01 -0.17516725E-01
  0.56381298E-02  0.40527953E-02  0.90724322E-02
 -0.37783774E-02  0.81874697E-02 -0.17738148E-01
 -0.40977955E-02 -0.41679141E-02 -0.12742991E-01
 -0.32495612E-01  0.28966639E-02  0.11963361E-01
 -0.15782131E-01 -0.83231994E-02  0.26423876E-01
  0.11683051E-01  0.10688166E-01 -0.23597591E-01
 -0.16516035E-01  0.71294315E-02 -0.22850101E-01
 -0.10133331E-01  0.22993064E-01  0.56796707E-02
 -0.49939607E-02 -0.18262723E-02 -0.14059052E-01
  0.11861118E-02  0.13506491E-01  0.51763487E-02
  0.19491017E-01 -0.48645239E-02 -0.17874355E-01
  0.27099718E-01  0.15685947E-01  0.12261672E-01
  0.23409754E-01 -0.81993431E-02 -0.27442574E-01
  0.48288028E-02  0.84326265E-02  0.11495394E-01
 -0.54749466E-02 -0.26034411E-02 -0.68145996E-02
  0.94916400E-02  0.11300825E-01 -0.11635768E-02
 -0.35175890E-01  0.13279877E-01 -0.41640453E-02
  0.31290090E-02  0.93644214E-02  0.16019833E-01
 -0.62590284E-03  0.52029662E-02 -0.39551065E-01
  0.68477797E-02  0.48378369E-02  0.22938895E-01
 -0.33407270E-01  0.70116031E-02 -0.14367695E-01
 -0.76502577E-02  0.11311430E-01 -0.20925690E-01
  0.64474084E-02 -0.88579873E-02 -0.10099924E-02
  0.18485977E-01  0.67990420E-02  0.17036216E-02
  0.52593318E-02 -0.11252056E-01  0.11165991E-01
  0.21730005E-01 -0.26230068E-01 -0.23327550E-01
 -0.88067814E-02 -0.61502189E-02 -0.17113748E-01
 -0.10735177E-02 -0.13715624E-01  0.10893203E-01
  0.15126697E-01 -0.84127883E-02  0.10431082E-01
 -0.43817365E-01 -0.89363334E-02 -0.25656767E-01
 -0.11870104E-01  0.45145595E-02  0.17450804E-02
 -0.59504405E-02  0.20432584E-01 -0.31002432E-02
 -0.16643016E-01 -0.93769450E-02 -0.17959303E-01
 -0.28921947E-01 -0.70342619E-02 -0.32508396E-02
 -0.17070292E-02  0.15331859E-01 -0.15901555E-01
 -0.22721016E-01 -0.13000694E-01  0.35160062E-02
  0.50478385E-02 -0.70349576E-02  0.27094432E-01
  0.43000848E-01  0.10018182E-01 -0.13055462E-04
  0.26480525E-01 -0.16230613E-03 -0.23024162E-01
 -0.32633407E-01 -0.12372953E-01 -0.21907794E-01
 -0.41696388E-02  0.11330436E-01  0.11601404E-01
 -0.26728937E-01  0.70704862E-02 -0.24816224E-02
  0.37409688E-02  0.47509915E-02  0.12791202E-01
  0.15463756E-01  0.38778490E-01 -0.24387766E-01
 -0.71014790E-02 -0.37755019E-02 -0.13720800E-01
  0.12138260E-01  0.21026809E-01 -0.46283728E-02
  0.67465812E-02  0.52656223E-02 -0.17347250E-01
 -0.26653301E-01 -0.47795455E-02  0.17797073E-02
 -0.10233413E-01  0.82940264E-02  0.23609793E-01
  0.12705211E-01  0.82718013E-02  0.12581823E-01
 -0.10867828E-02  0.19718260E-01 -0.17598540E-01
 -0.21623484E-01 -0.14624528E-01 -0.18619654E-01
 -0.74718320E-02 -0.17813592E-01 -0.20244939E-01
  0.46211861E-02 -0.11349199E-01 -0.70330096E-02
  0.26655528E-01 -0.18920210E-01 -0.48698117E-02
 -0.40317587E-03  0.67504742E-02  0.50606744E-03
 -0.16409373E-01  0.70639743E-02 -0.22510174E-01
  0.11633593E-01 -0.18274650E-01 -0.34447301E-02
  0.78940387E-03  0.88797215E-02  0.34887100E-02
 -0.15435781E-01  0.39870747E-03  0.50911461E-02
 -0.34816482E-02 -0.78374552E-02 -0.74214161E-02
 -0.11495769E-01  0.78476531E-03  0.17703005E-01
 -0.33964175E-02 -0.30555020E-02  0.58279627E-02
  0.15426750E-02 -0.20535624E-01 -0.86517643E-02
 -0.62777486E-02  0.45261841E-02  0.20405989E-01
 -0.14061536E-01  0.20299332E-01 -0.13487454E-01
  0.89250487E-02 -0.14084157E-01 -0.12016613E-01
  0.32628955E-02 -0.67287265E-02  0.64761052E-02
  0.32506157E-02 -0.97961360E-03 -0.21800105E-01
 -0.13220416E-01  0.12209213E-01 -0.25087221E-02
 -0.34688326E-01 -0.19656583E-01 -0.26878888E-02
 -0.47789249E-02  0.33096018E-02  0.33863929E-02
  0.14357900E-01  0.53115574E-03 -0.18667983E-01
  0.11780327E-01  0.31643133E-01  0.10391233E-01
 -0.96571608E-02 -0.68308226E-03 -0.12925220E-01
 -0.16659904E-01 -0.25480574E-02 -0.63642668E-02
 -0.69428423E-02 -0.76071171E-02 -0.11664262E-01
 -0.77458388E-02  0.25480261E-01 -0.10330204E-01
 -0.53011012E-03 -0.41720166E-01 -0.14222182E-01
  0.23950948E-01 -0.95108156E-02  0.78652036E-02
  0.59570787E-02 -0.83724820E-02 -0.26789381E-02
  0.26674725E-02 -0.51789264E-02 -0.23481188E-03
  0.25498633E-02  0.14670897E-01  0.19159157E-01
 -0.15070995E-01 -0.35406917E-01  0.13939239E-02
  0.21226486E-01  0.12208264E-01 -0.31153768E-01
  0.27967067E-02  0.18723978E-01  0.69150133E-02
 -0.51664858E-02 -0.53626013E-02  0.14073560E-01
 -0.57052385E-02  0.52092703E-03  0.12876403E-02
  0.78210024E-02  0.61929247E-03 -0.61343638E-02
 -0.17211454E-01 -0.11613030E-01 -0.23583023E-01
  0.57986849E-02 -0.17046130E-01  0.87200807E-02
 -0.14844694E-01 -0.31173692E-02  0.73367009E-03
 -0.28750971E-01 -0.46578556E-02  0.16089616E-01
 -0.11925945E-01  0.48026588E-02  0.17452207E-01
  0.28999733E-01  0.34490316E-02  0.22493820E-01
 -0.14718105E-01 -0.23133337E-03 -0.32566861E-01
 -0.15716392E-01  0.31842762E-02 -0.52078178E-02
 -0.10692332E-01 -0.22496869E-02  0.29788157E-01
 -0.39621941E-02  0.98618632E-02 -0.79233438E-02
 -0.78165343E-02 -0.10718880E-01 -0.12804023E-01
  0.24101649E-01  0.95715970E-03 -0.12854154E-01
 -0.17948539E-01  0.18241697E-01  0.13901399E-01
 -0.29769689E-01 -0.15692222E-01 -0.11423388E-01
 -0.10196220E-01 -0.50614989E-02 -0.19891099E-02
 -0.25144109E-01  0.26176583E-01  0.29954209E-02
  0.98876636E-02 -0.79159376E-02 -0.11806426E-01
  0.59105144E-02 -0.20442538E-01  0.27401062E-01
 -0.43291118E-02 -0.18595912E-01 -0.21042233E-01
 -0.88376620E-02  0.14829797E-01 -0.64721994E-02
  0.11376184E-01 -0.71100421E-02  0.62429157E-02
  0.10169157E-01  0.20511129E-01 -0.14291435E-01
 -0.54791445E-02 -0.74237306E-03  0.88202064E-02
 -0.93763955E-02 -0.18687123E-02  0.24308373E-01
  0.45815948E-02 -0.55225867E-02 -0.29337806E-02
  0.49758951E-01 -0.96110751E-02  0.13916306E-01
  0.28495239E-02  0.24128963E-01  0.11206707E-01
 -0.16326561E-01 -0.13334831E-01 -0.35106109E-02