File Created for 1 KOH by 110 waters at 
   1.0000000000000000     
    14.8997209999999995    0.0000000000000000    0.0000000000000000
     0.0000000000000000   14.8997209999999995    0.0000000000000000
     0.0000000000000000    0.0000000000000000   14.8997209999999995
  H               O               K             
   221   111     1
Direct
  0.9291771674374758  0.1677721575556749  0.7921448558747244
  0.9717177752033909  0.2561602354950600  0.8332212840918435
  0.7042084640457240  0.9921261395904895  0.1450282624683078
  0.7690089769929347  0.9153383069254930  0.1107477696032178
  0.0893520211445963  0.1838044516951983  0.2997547670523146
  0.0665876516026368  0.2317551452232246  0.2139223271360783
  0.7696920892620350  0.2341859040718686  0.6863872708646356
  0.8747416445828325  0.2435800719640233  0.6953534549403836
  0.0071195477589017  0.0699266302126669  0.4874176092027407
  0.9732003941807225  0.0962228610939427  0.3912139722082765
  0.8414546598995518  0.0449950553906387  0.3474018553940466
  0.8752772223899430  0.1336810570251702  0.3087475122698394
  0.2372966411451872  0.9301005856394284  0.6802866896816305
  0.2004015447992148  0.0253856838454689  0.6628830310553528
  0.9758010575441125  0.6622383965764419  0.3470795927274362
  0.0801995214745193  0.6784824402601769  0.3147430264497222
  0.2216737618578592  0.0503541344367012  0.9439692735897760
  0.1922878266005026  0.0980500575844154  0.0301569418761330
  0.0790787863360950  0.5237882768306963  0.3257625505438774
  0.1675343509224840  0.4651311449269029  0.3428157421246937
  0.6317744385288071  0.2343805786338767  0.7670722055283623
  0.6101333404398092  0.3125372147549275  0.7048893322922927
  0.2446238624513171  0.6519215965970249  0.3458820916100672
  0.2064554844654081  0.7433047376367228  0.2937629510068872
  0.5632449129387908  0.5285039644522198  0.2879771505707336
  0.5505590648100553  0.5637050628537300  0.3898302087122956
  0.8530200013768754  0.6265536972309077  0.4429119851136528
  0.9211727659285952  0.6953871996521878  0.5035395038988751
  0.4931052382929698  0.2321739884998607  0.0381323316588441
  0.4095870508940014  0.2977355733759532  0.0489201390147797
  0.8244135972895338  0.2752533842228431  0.3181621411528315
  0.9156487227843113  0.2716600706915310  0.3689911736786104
  0.6312082874970524  0.1048176436748327  0.2276252569726455
  0.5643312497841338  0.0178529873453978  0.2250608432552752
  0.1049724116765382  0.8481282501246266  0.0889260215838432
  0.0155988807963022  0.8024585897791393  0.0519829601013213
  0.2822080746880784  0.8390681238889974  0.8097410726998093
  0.1878886017133210  0.7884722245428386  0.8222533167243157
  0.4078876107288632  0.7619123647750362  0.9662856622091075
  0.4812399777608869  0.7893405518817967  0.8995575217361592
  0.2549137644565820  0.3872758273270835  0.8220784930087970
  0.2771374829644995  0.4279888528935025  0.9192611154862003
  0.5022339648222681  0.6076612728850539  0.9439906825018366
  0.5116667639281306  0.5024988258202422  0.9255279732456332
  0.9397407419772592  0.0030395588017933  0.8074337674757662
  0.8415192128181288  0.0318679883619551  0.7601735084165833
  0.0384396854542369  0.2948142300520468  0.5826489155266431
  0.0278478500339760  0.2776045508824594  0.6869112598731089
  0.5268416361274297  0.9708550308192031  0.4879618014118348
  0.4916182654909715  0.9781690353820204  0.5858236124568413
  0.4907807263183133  0.2217619456428440  0.2858437454905590
  0.4132577730404568  0.2816276721507667  0.2609682620940932
  0.3327142320253080  0.4389772416960707  0.1815874957614000
  0.2776780893054833  0.3909934005233673  0.2459395738623555
  0.4978900195418760  0.3571794365355688  0.8764053877179430
  0.4051831411687462  0.3837881528524751  0.8463541427143598
  0.9205479923050395  0.4677847899721328  0.0300526834660624
  0.9145092088214285  0.4961025599220257  0.1309472807940947
  0.9293891823789234  0.8438460685274161  0.8807637960162048
  0.9101856511394610  0.8785357431787595  0.9792197152150133
  0.6891416731266102  0.2647693243641898  0.2329561184639037
  0.7453744175957151  0.1899339285571991  0.1815323306156061
  0.9057752178345786  0.8011457168420740  0.3727329419791336
  0.8593120872051184  0.8935599203366078  0.3783126303518079
  0.8099199805466524  0.1664274695395988  0.9818926256499522
  0.7903300012009331  0.1043079711019470  0.9089104382052462
  0.9761289938032789  0.6213805931182441  0.0901816145972584
  0.0013906936015610  0.6764184675190859  0.1758875204722011
  0.0302445782581681  0.9700872629827947  0.6265930630387598
  0.9349780980309021  0.9926159853697636  0.6185024075969524
  0.7051776641582308  0.9483098348747443  0.7399925164555299
  0.6653010698894343  0.0427822992880592  0.7483297689086237
  0.0780444850066160  0.9365339942358025  0.8940328166861530
  0.1010088846851530  0.9468234636194328  0.7942388093273300
  0.4353200840831203  0.0163990992000298  0.9414982044297679
  0.5340573417426167  0.9783912448202340  0.9484218950406647
  0.4487104336990443  0.7947852171169210  0.3912821668267655
  0.4545982736637590  0.7702735242902458  0.2959551522041756
  0.7356342013859629  0.6994038585864591  0.1763420561974293
  0.6825215686377686  0.6154532030697367  0.1711348903551408
  0.3715409356050784  0.4695328614633960  0.0310695718776889
  0.4574379079508731  0.4593414003814915  0.1023030757710203
  0.7006223564422848  0.8505454830302479  0.4482270754048148
  0.7450896334684808  0.7561409542734541  0.4607203848961591
  0.0995538637357177  0.5468880702004455  0.4758207088353478
  0.1389368946254262  0.4814288732193009  0.5493444636655592
  0.8857361876794956  0.2480812539485650  0.1670695417347138
  0.8507353623726461  0.2699850670178378  0.0706141821729356
  0.4443607252290237  0.6267029659096645  0.2676977023648854
  0.3856052142974351  0.6568850358763491  0.1940113901722711
  0.5813422168631155  0.1004370972845166  0.8713252884371462
  0.5048503846311970  0.1503408693152485  0.8181586611840221
  0.0177264466940939  0.3868551305881259  0.1342505263807185
  0.1032783493837287  0.3453372187303830  0.0840127376712317
  0.1861909468221217  0.5035005429235135  0.1918616151325133
  0.1028497585052020  0.4971765764461232  0.1284409183398852
  0.4377831336888969  0.8796568063372392  0.7948851687620921
  0.3495092712766564  0.8481151025545569  0.6916289236981336
  0.0832474599819405  0.6682970602468313  0.7626304456363016
  0.0729268581830289  0.7430973512246075  0.7033674218483003
  0.2392726884887051  0.1843616899937601  0.6195121854948018
  0.1413652342294474  0.1763034099927216  0.6526201216304370
  0.6273923391975934  0.4476345742095105  0.0970957889078759
  0.5785067475942334  0.5391729146317107  0.0808390388148252
  0.7084962684149066  0.7939675728578097  0.8281805527450071
  0.7959555262677607  0.8434661193389308  0.8672070942307986
  0.6031822568539269  0.5884316293668767  0.7806936169671264
  0.5301008965242276  0.5215111854640808  0.7961544955498989
  0.4775823694230779  0.9079148031218917  0.1470246241332303
  0.4619496150166697  0.9881109613490268  0.0871784910499139
  0.7606914736040873  0.4048852792897657  0.3236063177650401
  0.6754231108977892  0.3517108187030333  0.3603741317179747
  0.9613659606882543  0.1026816218312499  0.9509541633703025
  0.0621334562194112  0.0699298543235668  0.9741190072413345
  0.6223302359518265  0.2825245433337578  0.9427597148001728
  0.6401292530102144  0.3549126457618270  0.8718736789803958
  0.5891644308351023  0.1227794108341320  0.0272682372056375
  0.6317480421357977  0.1994575563112087  0.0870136877747277
  0.5356025840058852  0.7827871849966762  0.0472400881009118
  0.5016566984090396  0.7409436870001073  0.1352710229093725
  0.3368045774345699  0.5216090922888782  0.5548572224284438
  0.3734253473303285  0.4281310968818228  0.5196173597686028
  0.5967330072332064  0.7004029347448589  0.4508228308967313
  0.5335571239457512  0.6483421894354970  0.5212631056576832
  0.8504270786987799  0.3522355052945183  0.9365747837972407
  0.7602021800710057  0.3802116553815594  0.9810353914518722
  0.2902164779257853  0.5768099446972980  0.0270325043692613
  0.3207213803220952  0.5754852039617711  0.9247767763566072
  0.2312643906264711  0.3232398086634118  0.9828156208525726
  0.2420518073157848  0.2416370437028559  0.0495185288017594
  0.3061057427171724  0.7614899430158338  0.5304864966234349
  0.4003778642707348  0.7612904023258500  0.5749305128244997
  0.4250859943092811  0.3148927725900590  0.5829095744835556
  0.3816965535990571  0.2545785089726910  0.5116666410268094
  0.0670578225634099  0.7598826434720195  0.5272110285338194
  0.9851903727759544  0.8238559809065589  0.5320027974258298
  0.9862110822029535  0.3425180390185239  0.9827809251175793
  0.0485531870127553  0.2670263284860652  0.9523952838563211
  0.2887490795112703  0.9911782677240989  0.8244630523619465
  0.3276797269283387  0.0885917734379252  0.8421809328847731
  0.1821638979267592  0.3569941749325425  0.6833654986825044
  0.2281360045399348  0.4517531092003131  0.7066839654758607
  0.8271151004410935  0.5413539715100054  0.2357366809291921
  0.9159534301817370  0.5259060137495601  0.2816190157893534
  0.2015542541555251  0.8868910453305311  0.2078499823754336
  0.1149408314000058  0.8625409085944065  0.2583751759585565
  0.5980369299889476  0.1075505716317504  0.3699771885516496
  0.5825890007639152  0.1364031059083669  0.4651756319483816
  0.2362886833557827  0.9380459438341844  0.4537389300507811
  0.1662832383679454  0.9539053312669804  0.5262948848938629
  0.2458495070709890  0.1121428574088314  0.4468644218792555
  0.1624622600261150  0.0896654430088529  0.4050190565460117
  0.6798747320230369  0.7953641161839771  0.6567230802170925
  0.6141538910546207  0.8690622391517447  0.6181549489870184
  0.7152828770508762  0.9515536671366303  0.9091441287612808
  0.7037128195492192  0.0049846083408367 -0.0003753801930377
  0.9868712267816209  0.5239644051663253  0.5888262983076228
  0.9483429382863102  0.4508118961520623  0.6580097359374031
  0.4113860815499247  0.1008332845421456  0.5766539155599819
  0.4045154558887675  0.0501598460499610  0.4852196688645542
  0.2946549077884826  0.7051713723460433  0.8464396401437044
  0.3792567662366063  0.6569546920067281  0.8071686778785057
  0.8925576722336932  0.7905479416715659  0.1344680317276770
  0.8252359224865659  0.8337570993735322  0.2058835346389967
  0.1861077965611349  0.7155559555448642  0.4568547713893472
  0.1846761631657279  0.6618539259544310  0.5445175737469012
  0.2400820706976603  0.2246833029611621  0.2441427690107528
  0.2737387084503283  0.2391989628686353  0.3346168152436201
  0.0055373097041619  0.9016082780030445  0.3284767467319314
  0.0936833670118214  0.9300056796718590  0.3724675551708314
  0.8642916675427496  0.7441629642437344  0.6684677278474717
  0.8086535252999276  0.6679422474391956  0.6261817931789951
  0.5567055580593037  0.4086784418896771  0.3940021869181044
  0.5473461290996077  0.2974121249481573  0.3972408397740747
  0.7561742959928017  0.6610127988179546  0.8432659920593265
  0.7459278174988327  0.6716255287726869  0.7471164139095384
  0.7826142618436241  0.4554189193668924  0.7552595929056096
  0.7841490646171849  0.3584645666723426  0.7964246469005265
  0.8628753200844330  0.7021513702518439  0.9641913320056064
  0.8058488883558635  0.6549125115238938  0.0305921072147251
  0.4822684016525685  0.0362235954227133  0.7293218261615407
  0.3906930691301027  0.9931046253287028  0.7071016841107925
  0.6675259046920243  0.5192516378557797  0.6603184837720515
  0.7438051462497418  0.5131717932682121  0.5903232245109374
  0.6944382042414859  0.9887860208855463  0.3599165847520567
  0.7462487811844337  0.0084973833043574  0.4518002614083558
  0.2500273236513794  0.0823385078870953  0.1617144593723578
  0.1530512746124321  0.1312192265813463  0.1766420278251408
  0.9777046814477487  0.5705114552305550  0.8229179516789096
  0.9509100432966551  0.5808295402819564  0.7255655005343133
  0.7619075786919894  0.0584591249174282  0.6139128672735131
  0.8037846127210124  0.1225538360400004  0.5565712386866080
  0.5722517701926947  0.3949544769188742  0.5780493458610649
  0.5186463190590433  0.4235322528212561  0.6694437171529652
  0.7765559338481844  0.4863785678037439  0.4384533891511037
  0.7013015061002471  0.5470759754848455  0.3932621229442674
  0.5438940985852193  0.7333097586754072  0.6486757147514063
  0.5021400504450086  0.6382618370134506  0.6719982852516330
  0.2143437429392450  0.6436800699981600  0.1483977135340629
  0.2642813838098891  0.7308035110068770  0.1000464224905368
  0.3259241686620931  0.5324276268385624  0.3136800147766756
  0.3598238475188766  0.5590132721109984  0.4120292779470625
  0.2951749489227450  0.0015066352838976  0.3151431300136854
  0.3626483421748982  0.9852188684466200  0.2390395584085926
  0.2617941555355051  0.3301483836013469  0.5159191220467269
  0.2455617370584957  0.3384355649830735  0.4142904579389822
  0.3702686085269462  0.8978879942954804  0.4747704011750777
  0.4021225617750804  0.9177194615885842  0.3798198628795212
  0.1919107617447705  0.6101704793559147  0.6641679452830664
  0.2688996750170312  0.6039066479563912  0.7351066719463458
  0.5391573660222455  0.8512774919264462  0.7869369358125108
  0.2795605582713481  0.8315170543278577  0.9720850300446209
  0.0654572204699655  0.3218096237371815  0.4258049314405220
  0.0141214993193872  0.2328955813452725  0.4463138777284265
  0.8043449636858538  0.3594769185547886  0.5515872680161019
  0.7284784554683817  0.3258123077767406  0.4892282346805160
  0.6857124751892034  0.7845086845154235  0.2932664262569952
  0.6241088647661118  0.8052457638630747  0.2039823480285752
  0.3979583027916093  0.2450936108603599  0.8767094922458146
  0.3867465563085727  0.2547850309943742  0.7778078221178947
  0.3425429257137226  0.8723562497901159  0.0511337971014559
  0.9572311104771122  0.2266193203683029  0.7768095731048452
  0.7483419001442569  0.9775870155862415  0.0995607421582351
  0.0677994250169986  0.1708665834071734  0.2393097997593027
  0.8262438242149560  0.2347358579243650  0.6496073128259205
  0.0217847479423314  0.1093416322466383  0.4363745304275367
  0.8881399944018693  0.0684786777986426  0.3036254048251178
  0.1802896596576009  0.9626310764629764  0.6699428138147219
  0.0203417909283902  0.6514733752772039  0.2992403726752509
  0.1710984301095511  0.0487118100903940  0.9873947749798622
  0.1087759615137587  0.4829021470852379  0.3668010563680563
  0.6618119972496737  0.2861121851747372  0.7385755010068946
  0.2008993453330631  0.7029728055153752  0.3459978611876647
  0.5754509757809945  0.5155992946817396  0.3516033961674113
  0.8922269687487199  0.6782721991707910  0.4454282688751955
  0.4291139901487689  0.2392663302841672  0.0222037192002996
  0.8875280179039473  0.2481688103749007  0.3124387365463547
  0.6135137554337446  0.0458646565654594  0.2586405719339238
  0.0564864438546642  0.8541196957753761  0.0432963300930222
  0.2466172249217420  0.7996250516901634  0.8564726859679925
  0.4648701073906534  0.7401513017822067  0.9410227917372288
  0.2861981997587160  0.3757962048457585  0.8804702834635972
  0.5473439337710533  0.5591217147219112  0.9418083204441924
  0.9081284809779799  0.0306361145335030  0.7532455320581452
  0.0663941377015586  0.3098252996938929  0.6418777558123459
  0.5423243248240365  0.9509927021000286  0.5474773638121821
  0.4775811699018149  0.2828835651681565  0.2747002266260214
  0.2928153124954631  0.4519379481161570  0.2322036966939315
  0.4694556059734466  0.3952150168312299  0.8323903536400472
  0.9567197326991805  0.4881534617023688  0.0799773996440988
  0.8945213923174360  0.8327569593482220  0.9339506876010319
  0.6836853180112215  0.2035563758447991  0.2007492274641932
  0.9158982517530645  0.8654688911362062  0.3838779250533691
  0.8328293482929717  0.1531537565602200  0.9225354857700471
  0.9778349270128583  0.6825245347921416  0.1155376348348088
  0.9842322729009638  0.9729786569614617  0.5817531854720556
  0.7173279979642448  0.0124898252951732  0.7244439373799068
  0.0525987692125071  0.9287266541001854  0.8335898743436551
  0.4896322476087436  0.0168083244430693  0.9803635933171424
  0.4778174801046664  0.8147894459462448  0.3393474464868552
  0.7458551520760874  0.6348665845111873  0.1695823536030980
  0.4025597456621272  0.4332853543525924  0.0818684513015277
  0.6909483287096094  0.7830511416975182  0.4399080903126846
  0.1099289754633755  0.5399017131520865  0.5413202223637132
  0.8559040390911843  0.2198178825707732  0.1142804543052751
  0.4489179032842657  0.6658243491695306  0.2163589072814107
  0.5627938665449835  0.1141725666550319  0.8106488383112320
  0.0740744414430698  0.3554946526612271  0.1388299304776995
  0.1418551771185485  0.5396000329024666  0.1616008574023380
  0.3368122378778352  0.8852617568866601  0.7443540200556655
  0.1208892292174286  0.7081974242473035  0.7305903673878468
  0.1901962716187376  0.1419539841916322  0.6275393076149577
  0.5912580181042473  0.4954714430422728  0.1279681321753341
  0.7386080286902554  0.8533748966931377  0.8345064257982682
  0.5580591990256526  0.5562518150945263  0.7489243335628382
  0.4610337543700244  0.9707819105971595  0.1483354335601374
  0.7196493302176155  0.3546271178520340  0.3127493238457394
  0.9966148134017893  0.0663892938827856  0.9913544121158409
  0.6219086081402955  0.3467488113663159  0.9335436051941886
  0.6099040610684890  0.1845178432741838  0.0271752859693396
  0.5323557640958290  0.7927170207414969  0.1138862491121273
  0.3781272521907720  0.4924900961463607  0.5154439842303545
  0.5491082946492563  0.6513013124229126  0.4578196436465728
  0.8241976414290174  0.3760433157467369  0.9925469604345751
  0.3030911818560032  0.5350233786176709  0.9765314680469690
  0.1971583588591972  0.2798642156752927  0.0184981038001397
  0.3560799909685062  0.7994796027596974  0.5470687191241608
  0.3665283519516371  0.2870448840098627  0.5678445177234788
  0.0056814994947677  0.7645519029951823  0.5523168199156213
  0.0080097256356496  0.3133349208985347  0.9291771165063738
  0.3039009108164453  0.0353603524812550  0.8687114449475807
  0.2394697265043828  0.3843492656557724  0.7067690903679954
  0.8766612124750851  0.4960336699712829  0.2404971187697867
  0.1593108515310675  0.8383252465312043  0.2108262413256859
  0.6020362327511970  0.1591085700858265  0.4091914920441350
  0.1749653807952941  0.9565544963439416  0.4603358953485130
  0.2088251467492332  0.1375109483225744  0.3992111799692851
  0.6186268253575925  0.8236342804306033  0.6640793216683031
  0.6900816074639533  0.0082503894715982  0.9360583912696193
  0.9363100426602760  0.5062836343422791  0.6276133779337900
  0.4103420105310538  0.1108681339974055  0.5111016529714327
  0.3182667750498129  0.6432490109732464  0.8267496414950408
  0.8600315915493777  0.8445231658163912  0.1529438974254444
  0.1887317869051423  0.7261887239263741  0.5252806410923845
  0.2587160081683755  0.2744175013134107  0.2817376681490052
  0.0595875728674725  0.9390970345450127  0.3158580987468749
  0.8056486922288317  0.7315638091737153  0.6397662034519990
  0.5760564583387686  0.3491334747791072  0.4226599589066160
  0.7066721298701134  0.6653259443300110  0.7988466494956187
  0.8117240892176035  0.4178171616561772  0.7992435521230810
  0.8176448876849209  0.6542193468481379  0.9645987298957237
  0.4371335602856894  0.0366273250584767  0.6838898594257411
  0.7290664566141537  0.5343035303983215  0.6519106642184720
  0.7448166186771292  0.9712633222842535  0.3985405792951828
  0.2177065495435871  0.1367412775858755  0.1517252045606504
  0.9706358810551526  0.6192246155410931  0.7776113589068896
  0.7840927683667301  0.0599701134964618  0.5519347782834551
  0.5431567212593361  0.3737168182552805  0.6342603707346869
  0.7623371398185359  0.5485258652036588  0.4164589969097481
  0.4987000620491947  0.6895220979439756  0.6292087741299283
  0.2686569532602361  0.6654455894483207  0.1217724933140447
  0.3414786725386070  0.5846403868808483  0.3527961138468697
  0.2971821508589393  0.9914192182979072  0.2507757786775343
  0.2152551230256447  0.3484869382922446  0.4716304805791688
  0.3684343787204721  0.9450236808590272  0.4296604884284859
  0.2375620178239765  0.5670975496735955  0.6902648746134838
  0.4963368974858562  0.8765795563307782  0.8299390883102100
  0.0068884983662577  0.3002333761241561  0.4430905147131099
  0.7617809120083423  0.3786467371091873  0.5046111789581570
  0.6890047843544710  0.8002603571764625  0.2267183847981564
  0.3969885684444357  0.2063859449877890  0.8194896976635964
  0.3176650498932218  0.8186301002849631  0.0264755510036502
  0.9691025902353569  0.0046149979459829  0.1487471077408602

  0.27464822E-01  0.67671990E-02  0.24784410E-01
 -0.24552511E-01 -0.13645027E-01  0.90198466E-02
  0.96628566E-02 -0.15753913E-01 -0.10785184E-01
  0.46994159E-01 -0.75126357E-02 -0.15908880E-01
  0.23805326E-02  0.17366743E-02  0.14453348E-01
 -0.18875071E-01  0.18366288E-01  0.12555958E-01
  0.19200528E-01 -0.62712409E-02  0.88993408E-02
  0.19932937E-01  0.21576628E-02 -0.20720552E-01
 -0.24413332E-02  0.94523070E-03  0.31071448E-02
 -0.10310588E-01 -0.72764073E-02  0.19402084E-01
  0.11892833E-01 -0.86360524E-02 -0.12010540E-01
  0.66388788E-02  0.62619367E-02  0.14541139E-01
 -0.18451466E-01  0.31564674E-02  0.16054221E-01
  0.16768057E-01 -0.91879472E-02  0.14756512E-01
 -0.41523883E-02 -0.27936193E-01  0.11137424E-01
  0.31608275E-02  0.29339368E-01  0.58985802E-02
 -0.21769086E-01 -0.65071573E-03 -0.20443616E-02
 -0.23734448E-01  0.23222530E-01  0.89458890E-02
 -0.18008347E-02  0.52858528E-02  0.18862206E-02
  0.18104171E-02  0.11935014E-01 -0.22193786E-02
 -0.11633290E-01 -0.56703546E-02  0.76601140E-02
 -0.82888125E-02  0.97078822E-02  0.97385839E-02
 -0.73455398E-03  0.15592174E-01  0.89320777E-02
 -0.12692524E-01  0.22425269E-02 -0.11904366E-01
 -0.14046793E-01  0.12065716E-01 -0.99776110E-02
  0.10427063E-01 -0.15340052E-01 -0.74769948E-02
 -0.66640763E-02 -0.18650330E-02  0.19199315E-01
  0.88496967E-03  0.31880037E-01 -0.13037989E-02
  0.74185043E-02 -0.10848379E-02 -0.13824790E-01
  0.21809778E-01 -0.97859177E-02  0.11020882E-01
  0.26130786E-02  0.32141664E-01 -0.61261198E-02
 -0.27723473E-02  0.28612144E-02 -0.27780722E-02
 -0.26145959E-01 -0.55191427E-02 -0.67583414E-02
 -0.17620032E-01 -0.61623833E-02 -0.26546712E-01
 -0.27368687E-02  0.87010605E-02 -0.11941864E-01
  0.19106236E-01 -0.41995315E-02  0.86932287E-02
 -0.46196209E-02  0.38955333E-02 -0.20204548E-01
 -0.25756254E-02 -0.23181375E-01  0.15100983E-01
 -0.74337910E-02 -0.11596031E-01 -0.89981161E-02
 -0.25646233E-02 -0.28604941E-01  0.17417614E-01
  0.68644162E-02  0.13537074E-01 -0.52948785E-02
  0.10307773E-01  0.88368283E-02 -0.15265852E-02
  0.13691221E-01 -0.15015121E-01  0.99470345E-02
  0.99934013E-02 -0.22722053E-02  0.79019737E-02
 -0.11323667E-01 -0.12881953E-01  0.28730321E-01
  0.18446416E-01 -0.55619795E-02  0.29911395E-02
  0.47282233E-02 -0.20464545E-01  0.17277419E-01
  0.14203807E-01  0.32359656E-02  0.27499541E-01
 -0.12172382E-01 -0.67950631E-02 -0.11502534E-01
  0.58032299E-02 -0.38330324E-02 -0.19371425E-01
 -0.69170780E-02  0.84534179E-03  0.21984422E-01
 -0.85476853E-02  0.22030053E-01 -0.32314846E-01
  0.12095873E-01  0.89111273E-02 -0.14803527E-01
  0.64354707E-02 -0.29630843E-02 -0.10465776E-01
 -0.16177530E-01 -0.21396698E-02  0.13401890E-01
 -0.20665455E-01  0.92643996E-02 -0.38616968E-02
  0.15439693E-02 -0.44496904E-02 -0.13206381E-01
  0.12273425E-01  0.17433643E-02 -0.12282016E-01
  0.97709857E-02 -0.29543568E-02 -0.16616297E-01
 -0.71025396E-02  0.44329797E-02 -0.11295129E-01
  0.20986287E-01 -0.11913666E-01  0.42042722E-03
  0.18298354E-01  0.22539005E-01 -0.39230911E-02
 -0.37751189E-02  0.68901068E-02 -0.75324697E-02
  0.72788628E-02 -0.13575211E-01  0.17963697E-01
 -0.21912912E-02 -0.73833336E-02  0.52765309E-02
 -0.15383913E-02 -0.77532763E-02  0.85925761E-03
 -0.43268551E-01 -0.58817184E-02 -0.16379708E-01
 -0.38038487E-02 -0.39186992E-02  0.24819244E-01
  0.21567103E-01 -0.97367167E-02  0.28429804E-02
  0.27743996E-01 -0.21551354E-01  0.12283137E-01
 -0.69906394E-02 -0.36449135E-01  0.41939207E-02
 -0.13907082E-01  0.19043970E-01 -0.22288276E-01
 -0.11854547E-01 -0.29106222E-01 -0.18934806E-01
 -0.16926004E-01  0.17708158E-01 -0.14268072E-02
  0.10394728E-01  0.72147730E-02 -0.87260043E-02
 -0.11248296E-01 -0.20656156E-01 -0.15675873E-01
 -0.16075335E-01 -0.10802774E-02  0.10354207E-01
 -0.89948663E-02  0.17126334E-01  0.17013599E-01
  0.23053154E-01 -0.11791464E-01 -0.14613647E-01
  0.10875960E-02  0.10747646E-01 -0.55463191E-02
  0.21942026E-01  0.17554216E-01  0.19731885E-01
  0.23220854E-01 -0.22959192E-01 -0.52229588E-03
  0.98093107E-02 -0.71888686E-02  0.10115239E-01
  0.17540564E-01 -0.21415750E-01  0.15740630E-01
  0.22346149E-01 -0.99690179E-02 -0.26212546E-01
 -0.16378741E-02 -0.28309426E-01 -0.30122126E-02
 -0.19512937E-02  0.10373538E-01 -0.81758346E-03
 -0.19807173E-02 -0.13920897E-01 -0.11196531E-01
 -0.66101659E-02  0.22343723E-01 -0.69462574E-02
 -0.55477777E-02  0.64975537E-02  0.52379350E-02
  0.17347215E-01  0.30303206E-02  0.21084156E-01
  0.22162378E-02 -0.83822654E-02 -0.46854959E-01
 -0.72900114E-02  0.11804258E-01 -0.41321029E-03
 -0.14717814E-01  0.11930588E-01 -0.20119862E-01
  0.53817707E-02 -0.22553913E-01 -0.23803586E-01
 -0.65511045E-02 -0.90150711E-02  0.17840453E-01
  0.12181788E-01 -0.28370936E-02  0.15148216E-02
 -0.36446156E-02  0.11541144E-01 -0.10180884E-01
 -0.80491882E-02 -0.30004327E-01 -0.24862060E-01
  0.62927460E-02  0.12217593E-01 -0.22825819E-01
 -0.78969544E-02  0.69722339E-02 -0.13460360E-02
 -0.88202629E-02  0.57164016E-02 -0.26399757E-01
 -0.24585141E-01 -0.41317408E-02  0.33782052E-01
 -0.31712808E-01 -0.28285942E-02  0.86308874E-02
 -0.22726592E-01 -0.20782474E-01 -0.19710671E-02
 -0.29489616E-01 -0.32886206E-01  0.18003839E-02
  0.24607720E-01  0.16923797E-01  0.27052700E-02
 -0.15523782E-01  0.21625444E-02 -0.24776935E-01
 -0.12565189E-01 -0.85142673E-02 -0.15585097E-01
  0.23749465E-01  0.24489559E-01  0.23357661E-01
  0.14681853E-01  0.12257595E-01  0.79281631E-02
 -0.10224191E-01  0.51377506E-02  0.11526600E-01
 -0.15280906E-01  0.27886123E-01 -0.11149801E-01
 -0.49987671E-02 -0.28660627E-01  0.16757792E-01
 -0.18226895E-01 -0.75771481E-02 -0.21192597E-01
  0.71747383E-02  0.49440464E-02  0.66663217E-02
 -0.24522508E-01 -0.84908011E-03 -0.14178787E-01
 -0.18663296E-02 -0.17471155E-02  0.15558272E-01
 -0.16168700E-02 -0.28379671E-02 -0.45798285E-02
 -0.10220962E-02  0.94879462E-02 -0.32291736E-02
  0.26392785E-01  0.28750541E-01  0.22577255E-01
  0.79926071E-02 -0.38847847E-02 -0.11071386E-02
 -0.25894242E-02  0.54335240E-03  0.24564138E-01
 -0.51687953E-03  0.67184365E-02  0.13846144E-01
  0.10392883E-01 -0.64525097E-02  0.70096234E-02
 -0.68812919E-02 -0.18315274E-01  0.52677710E-01
 -0.10041100E-01  0.26723115E-01  0.95500202E-02
  0.65531024E-02  0.97435624E-02  0.69268358E-02
  0.12997295E-01 -0.13898860E-01 -0.12738437E-01
 -0.15779645E-01  0.11686998E-01  0.15506094E-01
  0.11080748E-01 -0.53092909E-02  0.10236217E-02
  0.15651755E-01 -0.13586965E-01 -0.32959603E-01
 -0.71287427E-02  0.26334699E-02  0.93459812E-02
 -0.46098404E-02 -0.23759579E-01 -0.39409308E-02
  0.78852016E-02 -0.66264639E-02  0.15520424E-01
 -0.11140937E-01 -0.22528977E-02  0.12233660E-01
  0.99977749E-02 -0.77610382E-03 -0.18580841E-01
 -0.68315473E-02 -0.45408746E-02  0.40144702E-02
 -0.80644570E-02  0.11308769E-03  0.69321612E-02
  0.36352280E-02 -0.58412077E-02 -0.14686247E-01
  0.26124054E-01 -0.15346317E-01  0.31926250E-02
  0.13137149E-01  0.11604278E-02 -0.79898445E-02
  0.20203079E-01  0.65457214E-02  0.13633871E-01
 -0.18248056E-01  0.31971187E-03 -0.25309717E-01
 -0.35280435E-02  0.40750777E-02  0.10281167E-01
  0.12200356E-01 -0.35079608E-03 -0.13655633E-01
  0.89909049E-02  0.97657948E-03  0.54429481E-02
  0.47232148E-02  0.24771391E-01  0.59328956E-02
  0.16017297E-01  0.16364614E-01  0.16095269E-01
 -0.99233100E-02  0.18428353E-01 -0.16642386E-01
 -0.78920244E-02 -0.11934375E-01  0.10694467E-03
  0.38644398E-02 -0.46997057E-04 -0.10246795E-02
  0.93361040E-02 -0.89154860E-02 -0.52827604E-02
 -0.63120139E-02 -0.71248544E-02  0.11921590E-02
 -0.54434215E-01 -0.23576859E-02  0.70921669E-03
 -0.82726404E-03  0.37960227E-03 -0.13267245E-01
  0.10531309E-01 -0.36153404E-01 -0.26135376E-01
  0.95354524E-02  0.27060403E-01 -0.15514508E-02
 -0.16725475E-01 -0.37751092E-02 -0.24285773E-01
  0.24245780E-01  0.11641322E-01  0.14133823E-01
 -0.36026849E-02  0.17752531E-01  0.26485459E-02
  0.47461101E-02 -0.23139774E-02  0.28452501E-01
  0.64019461E-02  0.70552941E-02 -0.15399325E-01
  0.59978711E-02 -0.20717782E-02  0.13015271E-01
 -0.18385710E-01 -0.25017548E-02  0.11997046E-01
 -0.20522467E-01  0.10541712E-01  0.57272105E-02
  0.12285728E-01 -0.30613200E-01 -0.22747519E-02
 -0.51466661E-02  0.25737898E-01  0.25707023E-01
  0.11077473E-01 -0.15351544E-01 -0.28233991E-01
  0.17029902E-01 -0.18207429E-01  0.21115398E-01
 -0.12376857E-01 -0.40678925E-02 -0.31257486E-01
  0.10473229E-01  0.56398012E-02  0.12484903E-01
 -0.75087232E-03  0.16969944E-02  0.70161568E-02
 -0.11775330E-01 -0.20621336E-02 -0.77427344E-02
  0.60845701E-02  0.15403421E-01  0.81140495E-02
  0.27359260E-01  0.12748314E-01  0.14884882E-01
 -0.17937051E-01 -0.54629839E-02  0.77225384E-02
  0.16492853E-01  0.11610048E-01  0.12401288E-01
 -0.12235348E-01  0.93725965E-02 -0.86130400E-03
 -0.19915964E-01  0.19595053E-01  0.12853741E-01
  0.22564173E-01  0.16748543E-01 -0.15680654E-01
  0.49967344E-03  0.85170136E-02  0.42279712E-01
 -0.92937922E-02 -0.28971004E-02  0.14078254E-01
  0.10950060E-01  0.26762526E-01  0.93191189E-02
  0.22398134E-02  0.26223959E-02  0.84471147E-02
  0.81677310E-02  0.23381940E-01  0.19362079E-01
 -0.45489814E-02 -0.16022744E-02  0.12384550E-02
 -0.23079428E-01 -0.44667257E-02  0.19248156E-02
 -0.59184249E-02 -0.62182944E-02 -0.13311209E-01
 -0.13310607E-01  0.40935790E-01  0.15381861E-01