Regular 1 x 1 x 1 mesh centered at Gamma 
0
Gamma
1 1 1