File Created for 1 KOH by 110 waters at 
   1.0000000000000000     
    14.8997209999999995    0.0000000000000000    0.0000000000000000
     0.0000000000000000   14.8997209999999995    0.0000000000000000
     0.0000000000000000    0.0000000000000000   14.8997209999999995
  H               O               K             
   221   111     1
Direct
  0.9255112851799556  0.1695853537504149  0.7848306470415664
  0.9753706743282058  0.2591813613081861  0.8310460165747553
  0.7053689651320727  0.9950488864257916  0.1467840541349317
  0.7552403019135269  0.9125529074636894  0.1163639246368790
  0.0910486646634150  0.1821481911377581  0.3030001004254653
  0.0709265202972815  0.2276534041749528  0.2080799739640873
  0.7691942495497526  0.2388687134194176  0.6777752090020408
  0.8681699003920159  0.2430282051901934  0.7016030818860887
  1.0077719600681596  0.0681299222959632  0.4867389958327299
 -0.0192257866526954  0.0959602901689799  0.3875783621702934
 -0.1571809885100794  1.0466338594568674  0.3439723616550832
  0.8767045543863332  1.1341459813436401  0.3014290050926221
  0.2381991942672995  0.9318452559744350  0.6773149161775369
  0.1937224554847797  1.0297138132536436  0.6577425251270322
  0.9787494338630737  0.6733677544597552  0.3475491128773935
  1.0801949038381906  0.6687375939391482  0.3163743530015535
  0.2227747726383924  0.0471736935949148  0.9436253533799532
  0.1962211944170892  0.0892659272083202  0.0309627317895120
  1.0831675869319146  0.5213759728420126  0.3223627023810594
  1.1657651687438026  0.4631667612099543  0.3418495341720391
  0.6368821549214331  0.2334470064471495 -0.2343463918007981
  0.6159192166485861  0.3123409758835066  0.6991473208780908
  0.2442903611711161  0.6537260248268741  0.3408443875868233
  0.2126108855090700  0.7442724304501688  0.2954797176889402
  0.5672027674171942  0.5248766740473968  0.2876625405384529
  0.5500817771424588  0.5686166649265886  0.3894645833362738
  0.8509644647014800  0.6227562653558657  0.4406900178424608
  0.9212100824565401  0.6826488518991415  0.5035062251094967
  0.4927242391011099  0.2333409225266543  0.0429998205003831
  0.4083813328341193  0.2955422396245296  0.0430864794103053
  0.8258445011968476  0.2643743909585223  0.3189152616655097
 -0.0807852775109217  0.2707006042828436  0.3640938738071448
  0.6359792666642128  0.1016278430337411  0.2334550414667131
  0.5604936180765064  0.0180812891412257  0.2259759642931986
  0.0999640287877817  0.8429992691413289  1.0912970809457769
  0.0158528689583423  0.8023392947234008  0.0506181050579123
  0.2865592562387407  0.8372791949832740  0.8133103932416329
  0.1914655562574727  0.7951267483324597  0.8207864266717195
  0.4092113714701308  0.7651660684824981 -0.0286411837072919
  0.4797917185887152  0.7924767016093210  0.8980443253739074
  0.2521415961855268  0.3812102332051929  0.8221225511396330
  0.2739722315815353  0.4291877466418589  0.9169885878457555
  0.5045645225670918  0.6086506758027975  0.9396976016749072
  0.5116803903669969  0.5083738025152681  0.9263202242441501
  0.9424185351987784  0.0047770172636504  0.7992189270132876
  0.8432842893956283  1.0301673954893980  0.7616430950761313
  1.0409877757340456  0.3048500105628177  0.5808513295652822
  1.0236660451830564  0.2771988984658361  0.6783024904410518
  0.5301859073889301  0.9730482395488690  0.4894133634993171
  0.4979897295360914  0.9768711098677152  0.5892715743144539
  0.4960708164810936  0.2182489392867277  0.2791397560504743
  0.4125620813407155  0.2762729457091697  0.2707135397461353
  0.3339726835197043  0.4399288978903463  0.1784800675934509
  0.2732179694321512  0.3877801278369487  0.2534746069066124
  0.5067280955608280  0.3593675082572959  0.8724916335646543
  0.4063547982591617  0.3847141041966396  0.8476974604071813
  0.9155616932358055  0.4697188981928559  1.0317533958444070
  0.9160116747725896  0.4941686104640799  0.1325659477668421
 -0.0651637287216208  0.8475425619826064  0.8840206896123873
 -0.0858456672576290  0.8769806482763020  0.9797125915846295
  0.6832098111747764  0.2596634603181127  0.2291899494449860
  0.7433431190233463  0.1857932903191442  0.1813655773675037
  0.9047963994749822  0.8001171656209802  0.3781308389363067
  0.8561959947011329  0.8974250964162728  0.3732165241746716
  0.8134826963841681  0.1709706521546159  0.9825692825658895
  0.7924817823380746  0.1071773783893697  0.9065562702188895
 -0.0106805841420818  0.6232608408483680  0.0942991789119235
  0.0059820458102366  0.6768176360119855  0.1779151263109812
  1.0306137966618227  0.9723339210637071  0.6306197841671247
  0.9285878793461660  0.9981181380678016  0.6119343163840146
  0.7089495224614386  0.9477587243115442  0.7411699176126337
  0.6669971564690736  1.0411095457171116  0.7568265717856749
  1.0766171020218733  0.9434470107286800  0.8929275953262518
  0.1035459250824505  0.9396979233628069  0.7935448357052310
  0.4344231603916166  0.0135234828353673 -0.0563202409979595
  0.5365529227920980 -0.0157657705612168 -0.0477809303664820
  0.4521807559363706  0.7897027704296977  0.3981730307550721
  0.4610457059183094  0.7695691384290195  0.2935053267558058
  0.7307789303549969  0.7013424869421775  0.1827454297093522
  0.6892924667891667  0.6090268794762858  0.1716336386271427
  0.3713325732323564  0.4641110984809512  0.0322388940570178
  0.4541269318672428  0.4695434413143807  0.1001627493746334
  0.6971524049177646  0.8488741523706951  0.4430246875799310
  0.7497339177053766  0.7588805270699893  0.4592537966236233
  0.0933572333814773  0.5449230288052944  0.4767086394708812
  0.1416769231017326  0.4856909487946047  0.5474155883311128
 -0.1146224675962656  0.2413933156409152  0.1657510058055990
 -0.1501296655514347  0.2728525949434948  0.0768496998599804
  0.4476063260108635  0.6218490931874336  0.2699857030309410
  0.3906012829837792  0.6580195426897242  1.1907508735559778
  0.5809422951130393  0.0948475196854984  0.8725951759653575
  0.5096133894836398  0.1494877936760928  0.8287614872855011
  0.0170427758189224  0.3869437831469852  1.1277088934317703
  0.1108280300807090  0.3400366417335450  1.0817292707037383
  0.1858302775334701  0.5061080205890151  0.1972418377607668
  0.1065092893026257  0.4989230169504071  0.1240221149136767
  0.4350319813561450 -0.1190154188795176  0.7976691803602735
  0.3492690903909447  0.8440273093083862  0.6946478061558262
  0.0832726289519795  0.6710239351355752  0.7745664798935239
  0.0701482326939712  0.7444260092991110  0.7043097105445618
  0.2412552124351949  0.1825657082359102  0.6204189454267824
  0.1452747928678650  0.1762858161387946  0.6598605667124957
  0.6275041598694164  0.4571543650218669  0.0939934176218110
  0.5880368975572374  0.5388827281551684  0.0774339978931670
  0.7150592286370124  0.7932788237395111  0.8293767941765949
  0.7964997966015499  0.8516355104856431  0.8639577457435909
  0.6052374211889245  0.5908259557022774  0.7833674950715376
  0.5341147275335646  0.5207209341760970  0.7996822256705808
  0.4826144720681275  0.9085836000901698  0.1514306442744107
  0.4570072380830769  0.9825052709596971  0.0783126737507065
  0.7592485151788553  0.4072517112422542  0.3213808971301659
  0.6723897367876660  0.3520514373536886  0.3626897008035771
 -0.0421804662342060  0.1006515644894883  0.9478714281485329
  0.0586984052324516  0.0772591889059045  0.9705603186164103
  0.6287985400263937  0.2826718033530884 -0.0493151186621203
  0.6394858087883302  0.3519121251262727  0.8686317631605294
  0.5955451550321859  1.1188777477582657  0.0321413154974326
  0.6350692939538106  1.1997647583098865  1.0884221709838116
  0.5343179212380011  0.7829990624860376  0.0491066087109788
  0.5014151416324256  0.7363461552114373  0.1377950683603004
  0.3247303012177618  0.5113231920162435  0.5524115176977736
  0.3680060705694286  0.4266277122767073  0.5212940905394310
  0.5925240959909923  0.6963557428263563  0.4461974763345570
  0.5331156891806026  0.6499158118262540  0.5233420386665794
  0.8474483257982077  0.3557425487526571 -0.0664082128400564
  0.7632427921698630  0.3871691570855543 -0.0350021825639838
  0.2901840016865358  0.5734485904829173  1.0281171705409324
  0.3165674455426615  0.5717788032081299  0.9237210433977876
  0.2296265597925662  0.3271917297726896  0.9817358768329199
  0.2401051768296808  0.2432668697594157  1.0414120735950538
  0.3004140547881395  0.7636686277061447  0.5333078956516591
  0.3972072810611848  0.7634984568670801  0.5849752415579682
  0.4259793198389737  0.3136265946223757  0.5835473176291269
  0.3833867653078138  0.2567522383861606  0.5126069038700444
  0.0665410668615077  0.7592314012708937  0.5257845945620366
  0.9881895184298580  0.8219059479145795  0.5314653748493694
 -0.0150717804229884  0.3400476418825623  0.9841625908421407
  0.0516743408210379  0.2706108584184206  0.9513090853235392
  0.2936765981538347 -0.0076163082066730  0.8191578403531157
  0.3268312649503721  0.0931613504410127  0.8418413527571758
  1.1808890241176766  0.3643373610938550  0.6858579330054991
  1.2263438860968008  0.4489678523971480  0.7068708022031684
  0.8260572654933863  0.5360347993789499  0.2322629829134010
 -0.0812919020948011  0.5237430467277933  0.2850823019215113
  0.2050760044243646 -0.1129801873696806  0.2058933743355546
  0.1168064303594734 -0.1361369185278477  0.2544985867669990
  0.5956448432510238  0.1083995353037726  0.3655711566580441
  0.5795522006782859  0.1298176789353279  0.4655053472771133
  0.2357762570446463 -0.0685345112712817  0.4461832948870172
  0.1692413683250375 -0.0516110847580361  0.5258508421009274
  0.2512278615008090  0.1196884638554257  0.4473979514560408
  0.1605014158903107  0.0950753200741776  0.4032168976235139
  0.6775816821666336  0.7988776235326883  0.6589105153083777
  0.6137896498414892  0.8707915174099495  0.6172320564192356
  0.7255223175302428  0.9586465223875716  0.9110509981039178
  0.7052559635094106  1.0023462128661162  0.9996826628852983
 -0.0071720584660155  0.5313223928078709  0.5961734838052543
 -0.0508303789233754  0.4470205814199016  0.6522677370027191
  0.4169634490886291  0.1019206224945173  0.5761529379147364
  0.3959357221870859  0.0522903968609578  0.4837425045902229
  0.2927473232526604  0.7021606265482484  0.8448137211578782
  0.3763529906699826  0.6571636767591945  0.8003589652969353
 -0.1117648250406865  0.7872445693380989  1.1423896253142485
 -0.1801438633048434  0.8304381877714588  1.2060465390914870
  0.1936679697213621  0.7221007932540365  0.4613763789421753
  0.1897889812634967  0.6637897316438628  0.5435894485643297
  0.2336657765425155  0.2319285618843798  0.2353849767507586
  0.2740244742336873  0.2308360321268043  0.3290436818342213
  0.0008073346746980  0.9111312265923631  0.3380864332393809
  1.0940149235439531  0.9402289434690876  0.3725890762172576
  0.8580085022832920  0.7424810683965183  0.6721817107823496
  0.8055532273239123  0.6662383925799767  0.6220875595378594
  0.5564872646261503  0.4012140030249137  0.3908535265507670
  0.5459841010732146  0.2951147063356107  0.3946474892431817
  0.7494205100375536  0.6531500104573155  0.8452095514595614
  0.7341081572703431  0.6676089456346024  0.7386963239364184
  0.7882721971267108  0.4550162012873553 -0.2471329079882475
  0.7791286539407276  0.3602914615987595 -0.2114034478095188
  0.8670607392964919  0.6996291892211824 -0.0387146539290688
  0.8082490273187110  0.6447547058858226  0.0294102082693527
  0.4782199944042080  0.0322266123635055  0.7368883971149681
  0.3919735870835498 -0.0114449315727274  0.6928392057103322
  0.6655003374295130  0.5207882514926624 -0.3417636663807719
  0.7402819615179580  0.5045989391665296  0.5911489973051554
  0.6951139304246242 -0.0107381062790880  0.3576828712927643
  0.7424689761102782  0.0079109046619161  0.4550432524691660
  0.2497038156631092  0.0824108050344132  0.1666302920798372
  0.1563818192142537  0.1303742871061142  0.1809430456924107
  0.9778721544988459  0.5785174969739011  0.8263044798511097
  0.9585639347734466  0.5754462663205294  0.7261034073595816
  0.7587298156874653  0.0522410309178976  0.6130265538881670
  0.8153928588971864  0.1189801452837868  0.5556451667071998
  0.5683567192781351  0.3913432143180830  0.5783836002588201
  0.5230326646415986  0.4217128163721858  0.6731449169917768
  0.7734715657673066  0.4856782286937437  0.4335121365655740
  0.6999329722942055  0.5479370581740997  0.3919896289437080
  0.5438350221880816  0.7345167565868252  0.6512123458345418
  0.5035084495157779  0.6414609116245310  0.6717917217000303
  0.2129458733959389  0.6467742266634811  0.1492118110018127
  0.2629157530798558  0.7258101288379138  0.1028572141310817
  0.3260899166418886  0.5307901153663901  0.3159225136416619
  0.3551168036545168  0.5597236101099898  0.4105039526146874
  0.2886044818861216  0.0083223761771431  0.3109361888947677
  0.3608546506081891 -0.0175897310258407  0.2333392461086172
  1.2589041636317757  0.3335806241175718  0.5144969162863184
  1.2444721645380790  0.3412924846168147  0.4115765714680611
  0.3672554239800174  0.8937155770185314  0.4740834570336631
  0.4092830810974288  0.9187347209010484  0.3836115233866657
  0.1891929517959898  0.6062975450725806  0.6717530444819432
  0.2626928236011997  0.6026077391501499  0.7416210056620927
  0.5293750797156908 -0.1611772998380152  0.7895430977658050
  0.2842360283835381  0.8303254163412604  0.9707256115979185
  1.0662251938788680  0.3205455605657406  0.4237049714844599
  1.0166960027773893  0.2348953496736387  0.4487023328628907
  0.8047172169165606  0.3627106963031113  0.5502293715027441
  0.7340104620624446  0.3204262746284713  0.4938153507782799
  0.6830256847114684  0.7841407998218337  0.2893810051322506
  0.6290193418265672  0.8057218495512417  0.2100669100803847
  0.3941614850631238  0.2296657604830866  0.8795905029335781
  0.3839152171869652  0.2513773452054860 -0.2244062643688106
  0.3422644899476902  0.8772408156765654  1.0457422163898440
  0.9577345488369204  0.2248982364656324  0.7767672865678701
  0.7480504335194829  0.9767456478985436  0.0997037919468942
  0.0654131968375131  0.1707692242439872  0.2427862711705371
  0.8274639776943451  0.2361176841601548  0.6505737893301361
  1.0223280907264245  0.1077219206913932  0.4360103433641388
  0.8879417204199598  1.0678323631721531  0.3046369666549553
  0.1812229347592393  0.9651885017184126  0.6694703910344802
  1.0190577011120954  0.6522646075696803  0.2991550682922277
  0.1717227025561480  0.0490200201408339  0.9872300274691824
  1.1096796313070223  0.4812932039904131  0.3679683851048497
  0.6629422114306981  0.2882072467548828 -0.2600893901099728
  0.2004438451592290  0.7034918227334337  0.3464669263615701
  0.5741965662693679  0.5156265143449008  0.3520712966370377
  0.8920759725970094  0.6758269595927322  0.4455379437642766
  0.4300961742130396  0.2380682938641067  0.0244631983675594
 -0.1127720000896620  0.2478603825815455  0.3118525818989850
  0.6135359081326113  0.0459452015398663  0.2572188416950129
  0.0558742041436919  0.8525862729342396  1.0445312282040815
  0.2453706075274283  0.8004494032134434  0.8540113089340010
  0.4621225120635494  0.7392384763920341 -0.0599246974609963
  0.2889832810480696  0.3778692380476830  0.8778408913390867
  0.5473156112374538  0.5584853453279087  0.9404299932085324
  0.9067863334282968  0.0313135174784836  0.7526556201967949
  1.0656789399338382  0.3101289801346283  0.6406212587525936
  0.5409841084253296  0.9513365084003147  0.5503551366226468
  0.4786695198588172  0.2834573171685719  0.2743251559376280
  0.2930098823009346  0.4501232970407422  0.2326002311814190
  0.4697717158247279  0.3982877413078904  0.8324116024399003
  0.9572915481809889  0.4909441364251698  1.0794197586387024
 -0.1036483798074441  0.8319116442236457  0.9370279178452219
  0.6821381142329325  0.2035762922424227  0.1996920264205508
  0.9147458387502286  0.8643518018941992  0.3830469783267156
  0.8355206713648674  0.1545791470647946  0.9226899218827542
 -0.0219625393937617  0.6845223511343431  0.1164195825468385
  0.9826867695150415  0.9712384736570293  0.5831498382278322
  0.7171746178296309  1.0120443259293566  0.7235997032409613
  1.0521349461761469  0.9275928125387733  0.8346359933952131
  0.4870709231066076  0.0152404782274939 -0.0184558977330310
  0.4780806011435659  0.8143201102901774  0.3389668435472524
  0.7478276483034414  0.6372476812573145  0.1690276740427445
  0.3999302352709534  0.4340967844719453  0.0811994539305011
  0.6903793237233082  0.7858785401115230  0.4393482073072299
  0.1098550927242216  0.5427588540301870  0.5406227604026899
 -0.1447122091276676  0.2183308189456195  0.1131403296359783
  0.4495684073439875  0.6643168111086482  0.2182443555819830
  0.5623700927480588  0.1161529737739380  0.8112572685955858
  0.0739208994238465  0.3535339238572716  1.1384756370635771
  0.1400983875669513  0.5391833882992497  0.1613911592255938
  0.3384227955362353 -0.1137904055424116  0.7434137924031401
  0.1203557816092615  0.7086347962967077  0.7293147210928704
  0.1915819055318969  0.1407888027411414  0.6286526550826728
  0.5897401510913178  0.4951223133143742  0.1288868539566325
  0.7384349484410261  0.8550275745032458  0.8345620063211430
  0.5560927099260644  0.5557680789875852  0.7480945421822849
  0.4596856101701099  0.9719829005331865  0.1486622904843131
  0.7187994143362459  0.3561191063981370  0.3125514874609874
 -0.0026383278008540  0.0646336617355329  0.9895247643805571
  0.6249538522722304  0.3474980903758168 -0.0663566185359032
  0.6093476036633291  1.1834434744440565  1.0279990933710279
  0.5308841230220738  0.7921577483291670  0.1133526451680816
  0.3783078890350441  0.4921030674231880  0.5148833573078582
  0.5493964177238518  0.6518892055578706  0.4581174148695037
  0.8244695973372232  0.3758854372684959 -0.0084985522240456
  0.3037670166242539  0.5345107706971225  0.9758783658924630
  0.1960293414112588  0.2815019368984885  1.0154555817795534
  0.3560636148196377  0.8007524695303802  0.5465311819722392
  0.3676875304384912  0.2874934515545298  0.5682351876695186
  1.0064821920108051  0.7624419501078333  0.5524111478711878
  0.0076814464862634  0.3138309631156126  0.9287959742394736
  0.3027378933521036  0.0359765701676064  0.8693778519197798
  1.2381469917285166  0.3844694893199020  0.7075689843858369
 -0.1232162359092648  0.4966743080110004  0.2416696217720593
  0.1584261214483742 -0.1610315333413497  0.2096909026776732
  0.6037027696920454  0.1585003311859300  0.4092433699587772
  0.1748629526582846 -0.0446333958074822  0.4612030936783617
  0.2099175538512285  0.1372646607438630  0.3992978844165190
  0.6191175405651630  0.8250147801092400  0.6660887878714742
  0.6890202899747695  1.0070833919288440  0.9333412536639302
 -0.0617340997796617  0.5063363431848386  0.6262823748496430
  0.4111948578881287  0.1101746741512145  0.5117734580794427
  0.3191722184356955  0.6425097704860578  0.8283690818448961
 -0.1390678739497695  0.8462927910641015  1.1555084069634751
  0.1895937339739222  0.7260271765244054  0.5267757569015388
  0.2602710521642732  0.2756000401512078  0.2815508758767679
  0.0587452910092922  0.9376170719509016  0.3154627212002358
  0.8047316386239480  0.7301817751335361  0.6389988585300861
  0.5751345970149715  0.3484561901911948  0.4222745451016443
  0.7048103747221240  0.6654453532582241  0.7984363935926937
  0.8136158771546925  0.4146627369942178 -0.2001308917153825
  0.8192679156676835  0.6552920891032538 -0.0343941998302552
  0.4365266421337382  0.0374974525131104  0.6839566695900097
  0.7319558249048839  0.5306031467794757  0.6497555165734262
  0.7432832708416395 -0.0300688976752721  0.3973137177647567
  0.2151672254771141  0.1387890624968852  0.1542073314737183
  0.9690849033853310  0.6185142782164359  0.7767284247909522
  0.7850787207695370  0.0596442490792736  0.5523652842355284
  0.5444601099000751  0.3735720315111148  0.6353746489918812
  0.7617799821602294  0.5466919418313420  0.4164460050926307
  0.4972911277281881  0.6909661757555009  0.6291070604727006
  0.2711061712434498  0.6659992514702632  0.1218373712059645
  0.3400878514669792  0.5848250131885319  0.3516108243978461
  0.2981351767637939 -0.0093960237549192  0.2481294662316977
  1.2140892116480428  0.3503926929684752  0.4690639009255297
  0.3696655776591140  0.9462436040790840  0.4293264857495335
  0.2369066826848819  0.5676951575400613  0.6890545086669184
  0.4957270220718595 -0.1238722474314925  0.8330483904253774
  1.0064069397884294  0.3000786300420625  0.4444870494585929
  0.7617555078283581  0.3807462918227016  0.5040474473141520
  0.6898222351355651  0.8006551458136995  0.2283048992862952
  0.3957295468741862  0.2047155782279347  0.8207407310818712
  0.3194387526471598  0.8180478044003378  1.0246205575815057
 -0.0303414511141571  0.0054507521518940  0.1494939356095249

  0.56763796E-03 -0.63758425E-02  0.10639445E-01
  0.56775448E-02  0.39068812E-02  0.91341653E-02
 -0.18470116E-01 -0.48868191E-02  0.68841392E-02
  0.31826243E-01  0.25985232E-01 -0.14389403E-01
 -0.98450971E-02  0.36629884E-02 -0.25033091E-01
 -0.77977625E-02  0.91415123E-02  0.14522885E-01
  0.42358219E-03 -0.19359866E-01  0.31654576E-01
  0.97800291E-02 -0.12031287E-02 -0.23241719E-01
  0.12549291E-05  0.10831934E-01  0.16111951E-02
 -0.21873738E-01  0.10912294E-01  0.10385362E-01
 -0.65862356E-03  0.43331116E-02  0.12114363E-01
 -0.14006853E-01 -0.30410069E-02  0.24506721E-01
  0.12825762E-01 -0.17870049E-01  0.35438709E-02
  0.17902162E-01 -0.13422910E-01  0.14643208E-01
 -0.10381481E-01 -0.34206660E-01 -0.10566649E-01
 -0.17233073E-01  0.21731164E-01 -0.15076148E-01
  0.15275720E-01  0.17882463E-01  0.23335208E-02
 -0.10937435E-01  0.75997836E-02 -0.31251887E-01
 -0.20853432E-01  0.13794874E-01  0.95833711E-02
 -0.39779995E-02  0.61014370E-02  0.94545241E-02
 -0.14809271E-01  0.10844580E-01  0.96626241E-03
 -0.20037465E-01 -0.68863959E-02  0.22652895E-01
  0.31927076E-02 -0.21105319E-01  0.15673322E-01
 -0.19308451E-01 -0.88813678E-02  0.91346710E-04
 -0.83668104E-02  0.69481803E-02  0.17662573E-01
 -0.10465925E-01 -0.36634385E-02  0.15282460E-01
  0.96431613E-02  0.13658395E-01 -0.24377449E-02
 -0.52273661E-02  0.38770427E-01 -0.82137391E-02
 -0.10630180E-01 -0.48946959E-02 -0.16847244E-01
 -0.78831291E-02  0.84887073E-02  0.16657690E-01
  0.17669945E-01  0.19711628E-01 -0.36241879E-02
 -0.19072736E-01 -0.87317343E-03  0.19717469E-01
 -0.54339197E-02  0.56517229E-02 -0.13937475E-01
  0.31119576E-01 -0.15152156E-02  0.17386653E-01
  0.21241803E-01  0.19698544E-01 -0.90984998E-02
 -0.75544184E-02  0.13093766E-01 -0.37012531E-03
 -0.20143454E-01  0.26035485E-02  0.12488528E-02
  0.10918501E-01 -0.13418847E-01  0.12774493E-01
 -0.24878871E-02 -0.63974966E-02 -0.18275730E-01
  0.14546920E-01  0.17527888E-01 -0.16387185E-01
  0.97098354E-02  0.19560954E-01  0.61121299E-02
  0.77367220E-02 -0.11875996E-01  0.15785423E-01
 -0.25467376E-01  0.61000633E-02  0.13850745E-01
  0.10258567E-01  0.83699991E-03 -0.25826660E-02
 -0.21478697E-01  0.15366402E-01 -0.60234864E-02
 -0.13726496E-01  0.14202192E-01 -0.12183354E-01
 -0.13396667E-01 -0.34924434E-01  0.62926900E-02
  0.18959395E-01  0.60798148E-02  0.14135121E-01
 -0.71464333E-02 -0.51190955E-02 -0.73171083E-02
 -0.17067531E-01 -0.29523897E-02 -0.15970099E-01
 -0.18206129E-01 -0.77364573E-02  0.21675637E-01
  0.98759202E-02  0.87891413E-02 -0.25702704E-01
 -0.70230791E-02 -0.87635119E-02  0.17330334E-01
  0.78000423E-02 -0.14586156E-02 -0.20407074E-01
 -0.23837340E-01 -0.17680810E-01  0.18233499E-01
  0.11749766E-01 -0.99283222E-02 -0.62190641E-02
  0.18503842E-01 -0.93415585E-02 -0.33656384E-02
 -0.23172450E-01  0.72735152E-02  0.37367485E-02
 -0.28404235E-01 -0.12227140E-01 -0.14172236E-01
 -0.17311736E-01 -0.32210706E-02 -0.52485054E-02
  0.10185022E-01  0.12397215E-01  0.75184294E-02
 -0.38211417E-02  0.13104502E-03  0.26389757E-02
  0.10704242E-01  0.41811042E-02 -0.21088370E-01
 -0.13151154E-01  0.62305565E-02  0.88422429E-02
 -0.18518302E-01 -0.15571178E-01 -0.17733075E-02
 -0.10611796E-01 -0.10982606E-01  0.93395060E-02
 -0.32743976E-01 -0.34218503E-02 -0.39264099E-02
 -0.15707806E-01 -0.50340194E-02 -0.21389956E-01
 -0.28626749E-02 -0.57264192E-02 -0.13381056E-01
 -0.56941144E-02 -0.44672720E-02  0.30940480E-01
 -0.12945044E-01  0.44474745E-01 -0.12207566E-01
 -0.74364044E-02 -0.12948555E-02 -0.21255860E-01
  0.17623696E-01 -0.12977941E-01  0.20699484E-01
  0.10227105E-01  0.26678968E-01 -0.24592851E-02
  0.52808283E-02  0.10385058E-01  0.45963924E-02
 -0.11187491E-01 -0.66785489E-02 -0.14492709E-02
 -0.20786331E-01  0.17629409E-01 -0.96438290E-02
 -0.24677795E-01 -0.99366609E-02 -0.55525240E-02
  0.53051557E-02  0.11003790E-01 -0.19051182E-01
 -0.31995670E-01  0.25838086E-01  0.18207899E-02
 -0.67014034E-02  0.48932527E-02 -0.61940805E-02
  0.15357206E-01 -0.25116954E-01  0.17639139E-01
  0.53644012E-02 -0.18117733E-01  0.15984688E-01
 -0.17510735E-01 -0.87376160E-02  0.27726538E-02
  0.17435194E-01  0.16272700E-01  0.26393186E-01
 -0.15060060E-01  0.41392362E-02  0.11532206E-01
 -0.25381868E-02  0.24051747E-01 -0.34274612E-02
  0.79075742E-02 -0.63341155E-02 -0.19172110E-01
 -0.90617271E-02 -0.19786458E-02  0.74835813E-02
 -0.11075970E-01 -0.76224224E-02  0.13440715E-01
 -0.12571076E-01  0.25807599E-01 -0.12195212E-01
 -0.13113316E-01  0.19679176E-02 -0.16260709E-01
  0.15449994E-03 -0.56861262E-02  0.35092238E-01
 -0.11293032E-01  0.12613614E-01 -0.29755581E-03
  0.65529021E-02  0.51799242E-04 -0.66050315E-03
 -0.65088746E-02  0.10785010E-01  0.16844476E-01
  0.17298015E-02 -0.56640463E-02 -0.19639762E-01
  0.37680906E-02  0.13322458E-01 -0.59724569E-02
 -0.10910633E-01 -0.11925118E-01 -0.21432135E-01
  0.69729371E-02 -0.11936514E-01  0.10777984E-01
 -0.46386167E-02  0.47590053E-02 -0.38975942E-02
 -0.20711261E-01  0.95712026E-03 -0.12949296E-01
  0.95441819E-02 -0.28928884E-01 -0.92567298E-02
 -0.19451231E-01  0.33693255E-02 -0.10210736E-03
 -0.12476397E-01  0.30625744E-01 -0.39430975E-02
  0.18561012E-01 -0.14889339E-01  0.14932004E-01
 -0.11439588E-01 -0.13435936E-01  0.47326690E-03
 -0.95715437E-02 -0.59133859E-03  0.92758672E-02
 -0.11513274E-01 -0.88922090E-02 -0.10138135E-01
  0.42289444E-02  0.16152988E-01 -0.46240527E-02
 -0.74441683E-02 -0.26397718E-01  0.34590966E-02
  0.12573793E-01 -0.81507686E-02 -0.10480672E-01
  0.26050988E-01 -0.43339440E-02  0.16478424E-01
  0.14399859E-01 -0.14940026E-01  0.56932735E-02
 -0.19505535E-01 -0.65787117E-02 -0.20319834E-01
 -0.26442701E-03  0.15760977E-01  0.59445440E-03
 -0.15301316E-01  0.16473532E-01 -0.13506907E-01
 -0.12856501E-01  0.10235872E-02 -0.11741505E-01
  0.77531337E-02  0.43693043E-02  0.97689160E-02
 -0.89637064E-02 -0.17855940E-02 -0.22116289E-02
  0.26010810E-01  0.32560918E-01  0.84719368E-02
  0.15983466E-01  0.49350039E-02 -0.31152919E-02
  0.20020007E-02 -0.24834565E-02  0.74413299E-02
  0.33696825E-04 -0.15748096E-01 -0.14484681E-01
 -0.39001019E-02 -0.91773986E-02  0.15929698E-01
 -0.19061361E-01 -0.23125904E-01  0.32048145E-01
  0.86520523E-02 -0.80255075E-02 -0.15296989E-01
  0.13287731E-01  0.26860258E-02  0.77121747E-02
 -0.23039090E-02 -0.11194221E-01  0.17177584E-01
  0.15441283E-01 -0.10576967E-01  0.24998860E-01
  0.84434389E-02 -0.15409068E-01 -0.21012995E-01
  0.14766406E-01 -0.85574328E-02 -0.17801440E-01
 -0.30946124E-02  0.16234169E-02 -0.13691411E-01
 -0.63709037E-02  0.13567128E-01  0.81054834E-02
 -0.76932846E-02  0.11221267E-01 -0.43800212E-02
 -0.40428002E-02  0.12783752E-01 -0.82465005E-02
 -0.29527681E-02  0.16323516E-01  0.14368989E-01
 -0.11530835E-01 -0.14875908E-01  0.31255580E-02
 -0.22122032E-01 -0.16605007E-01  0.10426770E-01
  0.86716528E-02 -0.23960681E-02  0.43702685E-02
 -0.26511866E-02 -0.16372563E-01 -0.10715709E-01
 -0.32218750E-02 -0.13648206E-02  0.32002589E-02
 -0.71182483E-02  0.13384879E-01  0.41362088E-02
  0.14617663E-01  0.14499545E-01  0.13713200E-01
 -0.39679105E-02  0.80531753E-02  0.12458042E-02
 -0.13049097E-01 -0.90289096E-02  0.23933594E-01
  0.40705004E-02 -0.14177980E-01  0.11571718E-01
  0.39221475E-02  0.43799251E-02  0.16017183E-01
  0.51163381E-02  0.16396409E-01  0.23170868E-01
 -0.85911182E-02  0.15088052E-01  0.11925044E-01
 -0.15398777E-01 -0.27504158E-01 -0.44866478E-03
  0.91425424E-02 -0.21361659E-01  0.47639891E-02
 -0.19500270E-01 -0.20244110E-03 -0.48977410E-02
  0.71606987E-02  0.63803480E-02 -0.67957718E-02
 -0.13105750E-01 -0.26417032E-01 -0.37586842E-02
 -0.21830726E-02  0.10525607E-01  0.25691117E-01
 -0.40409102E-01 -0.75732163E-02 -0.17807945E-01
 -0.11947880E-01 -0.13538423E-01  0.37483184E-01
 -0.15365107E-01  0.12043468E-03  0.21089045E-01
  0.23927861E-01 -0.20253037E-01 -0.72587868E-02
  0.14503946E-01 -0.55476274E-02  0.34492783E-02
  0.12475514E-01  0.86902106E-03  0.12392056E-01
  0.17071944E-01  0.67496173E-02 -0.26859324E-01
  0.15923247E-01  0.12286092E-01  0.18890168E-03
 -0.23493572E-01 -0.29278650E-01 -0.22550914E-01
 -0.97241166E-02 -0.46372723E-02 -0.36330046E-02
  0.17248466E-01 -0.25983876E-01  0.36972884E-01
  0.53864851E-02  0.20081635E-01  0.14465116E-01
  0.13383528E-01 -0.35666119E-01 -0.25874907E-01
 -0.17708385E-01 -0.38427405E-01 -0.20024646E-01
  0.36800825E-01  0.13660237E-01  0.25421695E-02
  0.57802361E-02 -0.30627974E-02  0.87867365E-02
  0.87370973E-02  0.17129749E-01  0.19901353E-01
  0.10486447E-01  0.49907304E-02  0.14369440E-01
  0.22943111E-01  0.28907574E-01 -0.13308328E-01
  0.39203036E-01  0.12249906E-01  0.19348430E-01
 -0.22638094E-01  0.11568391E-01 -0.33266039E-02
  0.11933661E-01 -0.17009200E-01  0.29373612E-01
 -0.12983741E-01  0.41291317E-02  0.11018043E-01
  0.13561870E-02  0.35340998E-01 -0.16740577E-01
  0.18779903E-01  0.70967987E-02 -0.11413161E-01
 -0.34838871E-02  0.20192123E-01  0.37881099E-01
 -0.30925451E-02 -0.10905634E-01 -0.30869294E-03
  0.48163161E-02  0.28565528E-01  0.14391492E-02
 -0.27437286E-02 -0.55541120E-02  0.65319159E-02
  0.12264501E-01 -0.56595816E-02 -0.16914128E-01
  0.13607590E-01 -0.15615104E-01 -0.24750661E-01
  0.33860952E-01  0.12887998E-01 -0.36292880E-01
  0.33561951E-02 -0.26605480E-01 -0.17599552E-01
 -0.28791957E-01 -0.60726881E-02 -0.18148423E-01